\ LP format - for model browsing. Use MPS format to capture full model detail.
\ Signature: 0x138895b7763d0995
Minimize
  0.01 z_0 + 0.01 z_1 + 0.01 z_2 + 0.01 z_3 + 0.01 z_4 + 0.01 z_5 + 0.01 z_6
   + 0.01 z_7 + 0.01 z_8 + 0.01 z_9 + 0.01 z_10 + 0.01 z_11 + 0.01 z_12
   + 0.01 z_13 + 0.01 z_14 + 0.01 z_15 + 0.01 z_16 + 0.01 z_17 + 0.01 z_18
   + 0.01 z_19 + 0.01 z_20 + 0.01 z_21 + 0.01 z_22 + 0.01 z_23 + 0.01 z_24
   + 0.01 z_25 + 0.01 z_26 + 0.01 z_27 + 0.01 z_28 + 0.01 z_29 + 0.01 z_30
   + 0.01 z_31 + 0.01 z_32 + 0.01 z_33 + 0.01 z_34 + 0.01 z_35 + 0.01 z_36
   + 0.01 z_37 + 0.01 z_38 + 0.01 z_39 + 0.01 z_40 + 0.01 z_41 + 0.01 z_42
   + 0.01 z_43 + 0.01 z_44 + 0.01 z_45 + 0.01 z_46 + 0.01 z_47 + 0.01 z_48
   + 0.01 z_49 + 0.01 z_50 + 0.01 z_51 + 0.01 z_52 + 0.01 z_53 + 0.01 z_54
   + 0.01 z_55 + 0.01 z_56 + 0.01 z_57 + 0.01 z_58 + 0.01 z_59 + 0.01 z_60
   + 0.01 z_61 + 0.01 z_62 + 0.01 z_63 + 0.01 z_64 + 0.01 z_65 + 0.01 z_66
   + 0.01 z_67 + 0.01 z_68 + 0.01 z_69 + 0.01 z_70 + 0.01 z_71 + 0.01 z_72
   + 0.01 z_73 + 0.01 z_74 + 0.01 z_75 + 0.01 z_76 + 0.01 z_77 + 0.01 z_78
   + 0.01 z_79 + 0.01 z_80 + 0.01 z_81 + 0.01 z_82 + 0.01 z_83 + 0.01 z_84
   + 0.01 z_85 + 0.01 z_86 + 0.01 z_87 + 0.01 z_88 + 0.01 z_89 + 0.01 z_90
   + 0.01 z_91 + 0.01 z_92 + 0.01 z_93 + 0.01 z_94 + 0.01 z_95 + 0.01 z_96
   + 0.01 z_97 + 0.01 z_98 + 0.01 z_99
Subject To
 R0: - w_0 - 4.886448359475573 w_1 - 23.87737756982152 w_2
   - 116.6755724546332 w_3 - 570.1291596118156 w_4 - 2785.906696674343 w_5
   - 13613.18920761635 w_6 - 66520.14607078751 w_7 - 325047.258639675 w_8
   - 1.5883266437318723e+06 w_9 - 7.7612761225749496e+06 w_10
   - 3.7925074976593293e+07 w_11 - 1.8531892040236241e+08 w_12
   - 9.0555133457990801e+08 w_13 - 4.4249298332789068e+09 w_14 + z_0
   >= 1.077723395589373
 R1: w_0 + 4.886448359475573 w_1 + 23.87737756982152 w_2
   + 116.6755724546332 w_3 + 570.1291596118156 w_4 + 2785.906696674343 w_5
   + 13613.18920761635 w_6 + 66520.14607078751 w_7 + 325047.258639675 w_8
   + 1.5883266437318723e+06 w_9 + 7.7612761225749496e+06 w_10
   + 3.7925074976593293e+07 w_11 + 1.8531892040236241e+08 w_12
   + 9.0555133457990801e+08 w_13 + 4.4249298332789068e+09 w_14 + z_0
   >= -1.077723395589373
 R2: - w_0 - 1.492515503572874 w_1 - 2.22760252840539 w_2
   - 3.324731309443178 w_3 - 4.962213024558086 w_4 - 7.406179871184187 w_5
   - 11.05383827999175 w_6 - 16.498025006875 w_7 - 24.62355810109391 w_8
   - 36.7510422190101 w_9 - 54.85150028433382 w_10 - 81.86671456860013 w_11
   - 122.187340720211 w_12 - 182.366500365256 w_13 - 272.1848291274728 w_14
   + z_1 >= -0.9194716173505076
 R3: w_0 + 1.492515503572874 w_1 + 2.22760252840539 w_2
   + 3.324731309443178 w_3 + 4.962213024558086 w_4 + 7.406179871184187 w_5
   + 11.05383827999175 w_6 + 16.498025006875 w_7 + 24.62355810109391 w_8
   + 36.7510422190101 w_9 + 54.85150028433382 w_10 + 81.86671456860013 w_11
   + 122.187340720211 w_12 + 182.366500365256 w_13 + 272.1848291274728 w_14
   + z_1 >= 0.9194716173505076
 R4: - w_0 - 5.17909476544146 w_1 - 26.82302258942313 w_2
   - 138.9189758861993 w_3 - 719.4745408327034 w_4 - 3726.226828295052 w_5
   - 19298.48186127044 w_6 - 99948.66638867267 w_7 - 517643.6149064294 w_8
   - 2.6809253363260832e+06 w_9 - 1.3884766375905802e+07 w_10
   - 7.1910520856831327e+07 w_11 - 3.7243140214978403e+08 w_12
   - 1.9288575253599696e+09 w_13 - 9.9897359128741856e+09 w_14 + z_2
   >= 0.9367699182548156
 R5: w_0 + 5.17909476544146 w_1 + 26.82302258942313 w_2
   + 138.9189758861993 w_3 + 719.4745408327034 w_4 + 3726.226828295052 w_5
   + 19298.48186127044 w_6 + 99948.66638867267 w_7 + 517643.6149064294 w_8
   + 2.6809253363260832e+06 w_9 + 1.3884766375905802e+07 w_10
   + 7.1910520856831327e+07 w_11 + 3.7243140214978403e+08 w_12
   + 1.9288575253599696e+09 w_13 + 9.9897359128741856e+09 w_14 + z_2
   >= -0.9367699182548156
 R6: - w_0 - 6.067981171564244 w_1 - 36.82039549845818 w_2
   - 223.4254666141931 w_3 - 1355.741524662879 w_4 - 8226.614045162152 w_5
   - 49918.9391317699 w_6 - 302907.1827560414 w_7
   - 1.8380350816952283e+06 w_8 - 1.1153162268401193e+07 w_9
   - 6.7677178648059204e+07 w_10 - 4.1066384578101289e+08 w_11
   - 2.4919004840413489e+09 w_12 - 1.512080521857473e+10 w_13
   - 9.1752761365201828e+10 w_14 + z_3 >= 0.1587550285708321
 R7: w_0 + 6.067981171564244 w_1 + 36.82039549845818 w_2
   + 223.4254666141931 w_3 + 1355.741524662879 w_4 + 8226.614045162152 w_5
   + 49918.9391317699 w_6 + 302907.1827560414 w_7
   + 1.8380350816952283e+06 w_8 + 1.1153162268401193e+07 w_9
   + 6.7677178648059204e+07 w_10 + 4.1066384578101289e+08 w_11
   + 2.4919004840413489e+09 w_12 + 1.512080521857473e+10 w_13
   + 9.1752761365201828e+10 w_14 + z_3 >= -0.1587550285708321
 R8: - w_0 - 6.111033028633725 w_1 - 37.34472467705228 w_2
   - 228.2148459466993 w_3 - 1394.628461204837 w_4 - 8522.620589095386 w_5
   - 52082.01591047572 w_6 - 318274.9194267443 w_7
   - 1.9449885448025716e+06 w_8 - 1.1885889237602761e+07 w_9
   - 7.2635061705672592e+07 w_10 - 4.4387526112021381e+08 w_11
   - 2.7125363812990456e+09 w_12 - 1.6576399417489071e+10 w_13
   - 1.0129892433610054e+11 w_14 + z_4 >= 0.2567175038729182
 R9: w_0 + 6.111033028633725 w_1 + 37.34472467705228 w_2
   + 228.2148459466993 w_3 + 1394.628461204837 w_4 + 8522.620589095386 w_5
   + 52082.01591047572 w_6 + 318274.9194267443 w_7
   + 1.9449885448025716e+06 w_8 + 1.1885889237602761e+07 w_9
   + 7.2635061705672592e+07 w_10 + 4.4387526112021381e+08 w_11
   + 2.7125363812990456e+09 w_12 + 1.6576399417489071e+10 w_13
   + 1.0129892433610054e+11 w_14 + z_4 >= -0.2567175038729182
 R10: - w_0 - 2.849105648924097 w_1 - 8.117402998731199 w_2
   - 23.12733873827846 w_3 - 65.89223144381026 w_4 - 187.7339288267738 w_5
   - 534.8737971150757 w_6 - 1523.911956822044 w_7 - 4341.786164644658 w_8
   - 12370.20748810959 w_9 - 35244.02803273618 w_10
   - 100413.9593589079 w_11 - 286089.9788402991 w_12
   - 815100.5748144716 w_13 - 2.3223076521451897e+06 w_14 + z_5
   >= -0.3349002925035192
 R11: w_0 + 2.849105648924097 w_1 + 8.117402998731199 w_2
   + 23.12733873827846 w_3 + 65.89223144381026 w_4 + 187.7339288267738 w_5
   + 534.8737971150757 w_6 + 1523.911956822044 w_7 + 4341.786164644658 w_8
   + 12370.20748810959 w_9 + 35244.02803273618 w_10
   + 100413.9593589079 w_11 + 286089.9788402991 w_12
   + 815100.5748144716 w_13 + 2.3223076521451897e+06 w_14 + z_5
   >= 0.3349002925035192
 R12: - w_0 - 3.826726653470132 w_1 - 14.64383688037871 w_2
   - 56.03796089921413 w_3 - 214.4419585791398 w_4 - 820.610758517132 w_5
   - 3140.253061741851 w_6 - 12016.89009000873 w_7 - 45985.35359925749 w_8
   - 175973.3782875273 w_9 - 673402.0169940628 w_10
   - 2.5769254469317268e+06 w_11 - 9.8611892917790692e+06 w_12
   - 3.7736075897765219e+07 w_13 - 1.4440564743534997e+08 w_14 + z_6
   >= 0.7048767452391279
 R13: w_0 + 3.826726653470132 w_1 + 14.64383688037871 w_2
   + 56.03796089921413 w_3 + 214.4419585791398 w_4 + 820.610758517132 w_5
   + 3140.253061741851 w_6 + 12016.89009000873 w_7 + 45985.35359925749 w_8
   + 175973.3782875273 w_9 + 673402.0169940628 w_10
   + 2.5769254469317268e+06 w_11 + 9.8611892917790692e+06 w_12
   + 3.7736075897765219e+07 w_13 + 1.4440564743534997e+08 w_14 + z_6
   >= -0.7048767452391279
 R14: - w_0 - 4.872776801893368 w_1 - 23.74395376107016 w_2
   - 115.6989870721714 w_3 - 563.7753402078376 w_4 - 2747.151399244292 w_5
   - 13386.25560952649 w_6 - 65228.23579831566 w_7 - 317842.634226463 w_8
   - 1.5487762147113881e+06 w_9 - 7.5468408103698734e+06 w_10
   - 3.6774070828352466e+07 w_11 - 1.7919183924357951e+08 w_12
   - 8.7316183735471976e+08 w_13 - 4.2547227453606687e+09 w_14 + z_7
   >= 0.9309392515018967
 R15: w_0 + 4.872776801893368 w_1 + 23.74395376107016 w_2
   + 115.6989870721714 w_3 + 563.7753402078376 w_4 + 2747.151399244292 w_5
   + 13386.25560952649 w_6 + 65228.23579831566 w_7 + 317842.634226463 w_8
   + 1.5487762147113881e+06 w_9 + 7.5468408103698734e+06 w_10
   + 3.6774070828352466e+07 w_11 + 1.7919183924357951e+08 w_12
   + 8.7316183735471976e+08 w_13 + 4.2547227453606687e+09 w_14 + z_7
   >= -0.9309392515018967
 R16: - w_0 - 4.031375540680534 w_1 - 16.25198874999727 w_2
   - 65.51786993415418 w_3 - 264.1271383300377 w_4 - 1064.795685093658 w_5
   - 4292.591280708744 w_6 - 17305.04749518776 w_7 - 69763.14520241487 w_8
   - 281241.4372099598 w_9 - 1.1337898509940724e+06 w_10
   - 4.57073267356933e+06 w_11 - 1.8426339903216742e+07 w_12
   - 7.4283495990093678e+07 w_13 - 2.9946466881070417e+08 w_14 + z_8
   >= 0.8084208833501328
 R17: w_0 + 4.031375540680534 w_1 + 16.25198874999727 w_2
   + 65.51786993415418 w_3 + 264.1271383300377 w_4 + 1064.795685093658 w_5
   + 4292.591280708744 w_6 + 17305.04749518776 w_7 + 69763.14520241487 w_8
   + 281241.4372099598 w_9 + 1.1337898509940724e+06 w_10
   + 4.57073267356933e+06 w_11 + 1.8426339903216742e+07 w_12
   + 7.4283495990093678e+07 w_13 + 2.9946466881070417e+08 w_14 + z_8
   >= -0.8084208833501328
 R18: - w_0 - 4.536574331216701 w_1 - 20.58050666265426 w_2
   - 93.3649982492316 w_3 - 423.5572544915563 w_4 - 1921.498968527014 w_5
   - 8717.02289807902 w_6 - 39545.4223240535 w_7 - 179400.747832425 w_8
   - 813864.8276176596 w_9 - 3.6921582860503793e+06 w_10
   - 1.6749750507285202e+07 w_11 - 7.5986488205633968e+07 w_12
   - 3.4471835191297966e+08 w_13 - 1.5638404267877491e+09 w_14 + z_9
   >= 1.027574083299597
 R19: w_0 + 4.536574331216701 w_1 + 20.58050666265426 w_2
   + 93.3649982492316 w_3 + 423.5572544915563 w_4 + 1921.498968527014 w_5
   + 8717.02289807902 w_6 + 39545.4223240535 w_7 + 179400.747832425 w_8
   + 813864.8276176596 w_9 + 3.6921582860503793e+06 w_10
   + 1.6749750507285202e+07 w_11 + 7.5986488205633968e+07 w_12
   + 3.4471835191297966e+08 w_13 + 1.5638404267877491e+09 w_14 + z_9
   >= -1.027574083299597
 R20: - w_0 - 0.2201409734487944 w_1 - 0.0484620481909828 w_2
   - 0.0106684824640853 w_3 - 0.00234857011486514 w_4
   - 5.1701651129915874e-04 w_5 - 1.1381651808649642e-04 w_6
   - 2.50557e-05 w_7 - 5.51578e-06 w_8 - 1.21425e-06 w_9 - 2.67306e-07 w_10
   - 5.8845e-08 w_11 - 1.29542e-08 w_12 - 2.85175e-09 w_13
   - 6.27787e-10 w_14 + z_10 >= -0.2998667408481432
 R21: w_0 + 0.2201409734487944 w_1 + 0.0484620481909828 w_2
   + 0.0106684824640853 w_3 + 0.00234857011486514 w_4
   + 5.1701651129915874e-04 w_5 + 1.1381651808649642e-04 w_6
   + 2.50557e-05 w_7 + 5.51578e-06 w_8 + 1.21425e-06 w_9 + 2.67306e-07 w_10
   + 5.8845e-08 w_11 + 1.29542e-08 w_12 + 2.85175e-09 w_13
   + 6.27787e-10 w_14 + z_10 >= 0.2998667408481432
 R22: - w_0 - 1.875213330426414 w_1 - 3.516425034608922 w_2
   - 6.594047100343813 w_3 - 12.36524502402436 w_4 - 23.18747230303935 w_5
   - 43.48145716155265 w_6 - 81.53700809570857 w_7 - 152.8992845041591 w_8
   - 286.7187765148599 w_9 - 537.658871804217 w_10 - 1008.225083629294 w_11
   - 1890.637116891938 w_12 - 3545.347924594723 w_13
   - 6648.283689199645 w_14 + z_11 >= -0.835479979374077
 R23: w_0 + 1.875213330426414 w_1 + 3.516425034608922 w_2
   + 6.594047100343813 w_3 + 12.36524502402436 w_4 + 23.18747230303935 w_5
   + 43.48145716155265 w_6 + 81.53700809570857 w_7 + 152.8992845041591 w_8
   + 286.7187765148599 w_9 + 537.658871804217 w_10 + 1008.225083629294 w_11
   + 1890.637116891938 w_12 + 3545.347924594723 w_13
   + 6648.283689199645 w_14 + z_11 >= 0.835479979374077
 R24: - w_0 - 0.3676448292799169 w_1 - 0.1351627204962592 w_2
   - 0.0496918753018563 w_3 - 0.0182689610119499 w_4
   - 0.00671648905235978 w_5 - 0.00246928247101524 w_6 - 0.000907819 w_7
   - 0.000333755 w_8 - 1.2270327663474904e-04 w_9 - 4.51112e-05 w_10
   - 1.65849e-05 w_11 - 6.09736e-06 w_12 - 2.24166e-06 w_13
   - 8.24135e-07 w_14 + z_12 >= -0.282555938942117
 R25: w_0 + 0.3676448292799169 w_1 + 0.1351627204962592 w_2
   + 0.0496918753018563 w_3 + 0.0182689610119499 w_4
   + 0.00671648905235978 w_5 + 0.00246928247101524 w_6 + 0.000907819 w_7
   + 0.000333755 w_8 + 1.2270327663474904e-04 w_9 + 4.51112e-05 w_10
   + 1.65849e-05 w_11 + 6.09736e-06 w_12 + 2.24166e-06 w_13
   + 8.24135e-07 w_14 + z_12 >= 0.282555938942117
 R26: - w_0 - 5.385072721821375 w_1 - 28.99900821930467 w_2
   - 156.1617681216514 w_3 - 840.9424777033 w_4 - 4528.536397300921 w_5
   - 24386.49782288044 w_6 - 131323.0642067498 w_7 - 707184.2508057653 w_8
   - 3.8082386183158127e+06 w_9 - 2.0507641901679207e+07 w_10
   - 1.1043514299361372e+08 w_11 - 5.947012760653522e+08 w_12
   - 3.2025096193718915e+09 w_13 - 1.7245747192650127e+10 w_14 + z_13
   >= 0.7092357322647601
 R27: w_0 + 5.385072721821375 w_1 + 28.99900821930467 w_2
   + 156.1617681216514 w_3 + 840.9424777033 w_4 + 4528.536397300921 w_5
   + 24386.49782288044 w_6 + 131323.0642067498 w_7 + 707184.2508057653 w_8
   + 3.8082386183158127e+06 w_9 + 2.0507641901679207e+07 w_10
   + 1.1043514299361372e+08 w_11 + 5.947012760653522e+08 w_12
   + 3.2025096193718915e+09 w_13 + 1.7245747192650127e+10 w_14 + z_13
   >= -0.7092357322647601
 R28: - w_0 - 2.342710949665718 w_1 - 5.488294593683652 w_2
   - 12.85748783961386 w_3 - 30.1213775470572 w_4 - 70.56568099850602 w_5
   - 165.3149935458182 w_6 - 387.2852455237058 w_7 - 907.2973853323617 w_8
   - 2125.535519221201 w_9 - 4979.515334782915 w_10
   - 11665.56509882429 w_11 - 27329.04709105391 w_12
   - 64024.05786414204 w_13 - 149989.8614003571 w_14 + z_14
   >= -0.7931676230475736
 R29: w_0 + 2.342710949665718 w_1 + 5.488294593683652 w_2
   + 12.85748783961386 w_3 + 30.1213775470572 w_4 + 70.56568099850602 w_5
   + 165.3149935458182 w_6 + 387.2852455237058 w_7 + 907.2973853323617 w_8
   + 2125.535519221201 w_9 + 4979.515334782915 w_10
   + 11665.56509882429 w_11 + 27329.04709105391 w_12
   + 64024.05786414204 w_13 + 149989.8614003571 w_14 + z_14
   >= 0.7931676230475736
 R30: - w_0 - 4.271610660471637 w_1 - 18.24665763465494 w_2
   - 77.94261727016821 w_3 - 332.9405148363113 w_4 - 1422.192252477703 w_5
   - 6075.051586923925 w_6 - 25950.25512161938 w_7 - 110849.386419468 w_8
   - 473505.4207361396 w_9 - 2.0226308030076018e+06 w_10
   - 8.6398913003255799e+06 w_11 - 3.69062517837869e+07 w_12
   - 1.5764913855767453e+08 w_13 - 6.7341574087713265e+08 w_14 + z_15
   >= 0.8836398667098337
 R31: w_0 + 4.271610660471637 w_1 + 18.24665763465494 w_2
   + 77.94261727016821 w_3 + 332.9405148363113 w_4 + 1422.192252477703 w_5
   + 6075.051586923925 w_6 + 25950.25512161938 w_7 + 110849.386419468 w_8
   + 473505.4207361396 w_9 + 2.0226308030076018e+06 w_10
   + 8.6398913003255799e+06 w_11 + 3.69062517837869e+07 w_12
   + 1.5764913855767453e+08 w_13 + 6.7341574087713265e+08 w_14 + z_15
   >= -0.8836398667098337
 R32: - w_0 - 1.610254412133811 w_1 - 2.592919271796406 w_2
   - 4.175259697716951 w_3 - 6.723230350053203 w_4 - 10.82611133496512 w_5
   - 17.43279354337945 w_6 - 28.07123271904457 w_7 - 45.20182633987652 w_8
   - 72.78644030029248 w_9 - 117.2046866370602 w_10
   - 188.7293637800869 w_11 - 303.9022907260921 w_12
   - 489.3600044992619 w_13 - 787.9941063667583 w_14 + z_16
   >= -0.7805101034233733
 R33: w_0 + 1.610254412133811 w_1 + 2.592919271796406 w_2
   + 4.175259697716951 w_3 + 6.723230350053203 w_4 + 10.82611133496512 w_5
   + 17.43279354337945 w_6 + 28.07123271904457 w_7 + 45.20182633987652 w_8
   + 72.78644030029248 w_9 + 117.2046866370602 w_10
   + 188.7293637800869 w_11 + 303.9022907260921 w_12
   + 489.3600044992619 w_13 + 787.9941063667583 w_14 + z_16
   >= 0.7805101034233733
 R34: - w_0 - 2.183917184097764 w_1 - 4.769494266997508 w_2
   - 10.41618048915163 w_3 - 22.7480755629221 w_4 - 49.67991312701999 w_5
   - 108.496815982583 w_6 - 236.948060844256 w_7 - 517.4749418164134 w_8
   - 1130.122417772856 w_9 - 2468.093768308252 w_10
   - 5390.112392572999 w_11 - 11771.55907835849 w_12
   - 25708.11015484914 w_13 - 56144.38353785327 w_14 + z_17
   >= -0.890052697311717
 R35: w_0 + 2.183917184097764 w_1 + 4.769494266997508 w_2
   + 10.41618048915163 w_3 + 22.7480755629221 w_4 + 49.67991312701999 w_5
   + 108.496815982583 w_6 + 236.948060844256 w_7 + 517.4749418164134 w_8
   + 1130.122417772856 w_9 + 2468.093768308252 w_10
   + 5390.112392572999 w_11 + 11771.55907835849 w_12
   + 25708.11015484914 w_13 + 56144.38353785327 w_14 + z_17
   >= 0.890052697311717
 R36: - w_0 - 0.0591421786726066 w_1 - 0.00349779729814253 w_2
   - 2.0686735276730591e-04 w_3 - 1.22346e-05 w_4 - 7.2358e-07 w_5
   - 4.27941e-08 w_6 - 2.53094e-09 w_7 - 1.49685e-10 w_8 - 8.8527e-12 w_9
   - 5.23568e-13 w_10 + z_18 >= -0.0939827661967127
 R37: w_0 + 0.0591421786726066 w_1 + 0.00349779729814253 w_2
   + 2.0686735276730591e-04 w_3 + 1.22346e-05 w_4 + 7.2358e-07 w_5
   + 4.27941e-08 w_6 + 2.53094e-09 w_7 + 1.49685e-10 w_8 + 8.8527e-12 w_9
   + 5.23568e-13 w_10 + z_18 >= 0.0939827661967127
 R38: - w_0 - 2.251477558557948 w_1 - 5.06915119669006 w_2
   - 11.41308016028484 w_3 - 25.69629385490426 w_4 - 57.85462895242745 w_5
   - 130.2583987450874 w_6 - 293.273861588257 w_7 - 660.2995178775906 w_8
   - 1486.649546428028 w_9 - 3347.158091223057 w_10
   - 7536.051327334371 w_11 - 16967.25044363418 w_12
   - 38201.38360427474 w_13 - 86009.55789088813 w_14 + z_19
   >= -0.7432823591668225
 R39: w_0 + 2.251477558557948 w_1 + 5.06915119669006 w_2
   + 11.41308016028484 w_3 + 25.69629385490426 w_4 + 57.85462895242745 w_5
   + 130.2583987450874 w_6 + 293.273861588257 w_7 + 660.2995178775906 w_8
   + 1486.649546428028 w_9 + 3347.158091223057 w_10
   + 7536.051327334371 w_11 + 16967.25044363418 w_12
   + 38201.38360427474 w_13 + 86009.55789088813 w_14 + z_19
   >= 0.7432823591668225
 R40: - w_0 - 5.963334617450164 w_1 - 35.5613597596795 w_2
   - 212.064287698496 w_3 - 1264.610307957352 w_4 - 7541.294427026392 w_5
   - 44971.26211707049 w_6 - 268178.6841731516 w_7
   - 1.5992392309919896e+06 w_8 - 9.5367986677589118e+06 w_9
   - 5.6871121635099329e+07 w_10 - 3.3914152837980682e+08 w_11
   - 2.0224144164022593e+09 w_12 - 1.2060333900161865e+10 w_13
   - 7.1919806644843002e+10 w_14 + z_20 >= 0.508963894665007
 R41: w_0 + 5.963334617450164 w_1 + 35.5613597596795 w_2
   + 212.064287698496 w_3 + 1264.610307957352 w_4 + 7541.294427026392 w_5
   + 44971.26211707049 w_6 + 268178.6841731516 w_7
   + 1.5992392309919896e+06 w_8 + 9.5367986677589118e+06 w_9
   + 5.6871121635099329e+07 w_10 + 3.3914152837980682e+08 w_11
   + 2.0224144164022593e+09 w_12 + 1.2060333900161865e+10 w_13
   + 7.1919806644843002e+10 w_14 + z_20 >= -0.508963894665007
 R42: - w_0 - 1.369099852625218 w_1 - 1.874434406458394 w_2
   - 2.566287869637826 w_3 - 3.513504344115033 w_4 - 4.810338279725956 w_5
   - 6.585833429850252 w_6 - 9.016663578222216 w_7 - 12.34471277611521 w_8
   - 16.90114444247998 w_9 - 23.13935436539687 w_10
   - 31.68008665150756 w_11 - 43.37320196573314 w_12
   - 59.38224441916908 w_13 - 81.30022208283907 w_14 + z_21
   >= -1.062818696067595
 R43: w_0 + 1.369099852625218 w_1 + 1.874434406458394 w_2
   + 2.566287869637826 w_3 + 3.513504344115033 w_4 + 4.810338279725956 w_5
   + 6.585833429850252 w_6 + 9.016663578222216 w_7 + 12.34471277611521 w_8
   + 16.90114444247998 w_9 + 23.13935436539687 w_10
   + 31.68008665150756 w_11 + 43.37320196573314 w_12
   + 59.38224441916908 w_13 + 81.30022208283907 w_14 + z_21
   >= 1.062818696067595
 R44: - w_0 - 2.006795140481119 w_1 - 4.027226735858632 w_2
   - 8.081819043136742 w_3 - 16.21855518201458 w_4 - 32.54731772489172 w_5
   - 65.31579904600767 w_6 - 131.0754281221695 w_7 - 263.0415321920519 w_8
   - 527.8704685477175 w_9 - 1059.327891085051 w_10
   - 2125.854064005591 w_11 - 4266.153605018457 w_12
   - 8561.296323097045 w_13 - 17180.76785741002 w_14 + z_22
   >= -1.081372858541233
 R45: w_0 + 2.006795140481119 w_1 + 4.027226735858632 w_2
   + 8.081819043136742 w_3 + 16.21855518201458 w_4 + 32.54731772489172 w_5
   + 65.31579904600767 w_6 + 131.0754281221695 w_7 + 263.0415321920519 w_8
   + 527.8704685477175 w_9 + 1059.327891085051 w_10
   + 2125.854064005591 w_11 + 4266.153605018457 w_12
   + 8561.296323097045 w_13 + 17180.76785741002 w_14 + z_22
   >= 1.081372858541233
 R46: - w_0 - 5.766533971054042 w_1 - 33.2529140393203 w_2
   - 191.7540584442804 w_3 - 1105.756292106425 w_4 - 6376.381222138459 w_5
   - 36769.61892985251 w_6 - 212033.2566617063 w_7
   - 1.2226969775329502e+06 w_8 - 7.0507236572488593e+06 w_9
   - 4.0658237490039945e+07 w_10 - 2.3445710768949839e+08 w_11
   - 1.3520048762465684e+09 w_12 - 7.7963820479065533e+09 w_13
   - 4.4958101930569023e+10 w_14 + z_23 >= 0.4438575931521332
 R47: w_0 + 5.766533971054042 w_1 + 33.2529140393203 w_2
   + 191.7540584442804 w_3 + 1105.756292106425 w_4 + 6376.381222138459 w_5
   + 36769.61892985251 w_6 + 212033.2566617063 w_7
   + 1.2226969775329502e+06 w_8 + 7.0507236572488593e+06 w_9
   + 4.0658237490039945e+07 w_10 + 2.3445710768949839e+08 w_11
   + 1.3520048762465684e+09 w_12 + 7.7963820479065533e+09 w_13
   + 4.4958101930569023e+10 w_14 + z_23 >= -0.4438575931521332
 R48: - w_0 - 0.200456648220305 w_1 - 0.0401828678157191 w_2
   - 0.00805492299821862 w_3 - 0.00161466286589555 w_4 - 0.00032367 w_5
   - 6.48818e-05 w_6 - 1.3006e-05 w_7 - 2.60714e-06 w_8 - 5.22618e-07 w_9
   - 1.04762e-07 w_10 - 2.10003e-08 w_11 - 4.20965e-09 w_12
   - 8.43852e-10 w_13 - 1.69156e-10 w_14 + z_24 >= -0.3321485480912909
 R49: w_0 + 0.200456648220305 w_1 + 0.0401828678157191 w_2
   + 0.00805492299821862 w_3 + 0.00161466286589555 w_4 + 0.00032367 w_5
   + 6.48818e-05 w_6 + 1.3006e-05 w_7 + 2.60714e-06 w_8 + 5.22618e-07 w_9
   + 1.04762e-07 w_10 + 2.10003e-08 w_11 + 4.20965e-09 w_12
   + 8.43852e-10 w_13 + 1.69156e-10 w_14 + z_24 >= 0.3321485480912909
 R50: - w_0 - 0.4089382068701126 w_1 - 0.167230457038143 w_2
   - 0.0683869232352476 w_3 - 0.0279660257611862 w_4
   - 0.0114363764280629 w_5 - 0.00467677126958365 w_6
   - 0.0019125104569252 w_7 - 7.8209859687532928e-04 w_8 - 0.00031983 w_9
   - 1.3079070580435166e-04 w_10 - 5.34853e-05 w_11 - 2.18722e-05 w_12
   - 8.94437e-06 w_13 - 3.6577e-06 w_14 + z_25 >= -0.3318835841116829
 R51: w_0 + 0.4089382068701126 w_1 + 0.167230457038143 w_2
   + 0.0683869232352476 w_3 + 0.0279660257611862 w_4
   + 0.0114363764280629 w_5 + 0.00467677126958365 w_6
   + 0.0019125104569252 w_7 + 7.8209859687532928e-04 w_8 + 0.00031983 w_9
   + 1.3079070580435166e-04 w_10 + 5.34853e-05 w_11 + 2.18722e-05 w_12
   + 8.94437e-06 w_13 + 3.6577e-06 w_14 + z_25 >= 0.3318835841116829
 R52: - w_0 - 3.957332313229898 w_1 - 15.6604790373335 w_2
   - 61.97371973509929 w_3 - 245.2506036787619 w_4 - 970.5381387771037 w_5
   - 3840.741937804636 w_6 - 15199.0921772515 w_7 - 60147.85860479713 w_8
   - 238025.0644283466 w_9 - 941944.2788209246 w_10
   - 3.7275865318400776e+06 w_11 - 1.4751298632811306e+07 w_12
   - 5.8375790741728202e+07 w_13 - 2.3101240301258773e+08 w_14 + z_26
   >= 0.7097381136151218
 R53: w_0 + 3.957332313229898 w_1 + 15.6604790373335 w_2
   + 61.97371973509929 w_3 + 245.2506036787619 w_4 + 970.5381387771037 w_5
   + 3840.741937804636 w_6 + 15199.0921772515 w_7 + 60147.85860479713 w_8
   + 238025.0644283466 w_9 + 941944.2788209246 w_10
   + 3.7275865318400776e+06 w_11 + 1.4751298632811306e+07 w_12
   + 5.8375790741728202e+07 w_13 + 2.3101240301258773e+08 w_14 + z_26
   >= -0.7097381136151218
 R54: - w_0 - 5.490331788030001 w_1 - 30.1437431426527 w_2
   - 165.4991511863175 w_3 - 908.6452506502219 w_4 - 4988.763903687401 w_5
   - 27389.96904339157 w_6 - 150380.0177120904 w_7 - 825636.1915292046 w_8
   - 4.5330166277008178e+06 w_9 - 2.4887765286734357e+07 w_10
   - 1.3664208888678724e+08 w_11 - 7.5021040419794881e+08 w_12
   - 4.1189040298788338e+09 w_13 - 2.2614149727088631e+10 w_14 + z_27
   >= 0.7774644616246915
 R55: w_0 + 5.490331788030001 w_1 + 30.1437431426527 w_2
   + 165.4991511863175 w_3 + 908.6452506502219 w_4 + 4988.763903687401 w_5
   + 27389.96904339157 w_6 + 150380.0177120904 w_7 + 825636.1915292046 w_8
   + 4.5330166277008178e+06 w_9 + 2.4887765286734357e+07 w_10
   + 1.3664208888678724e+08 w_11 + 7.5021040419794881e+08 w_12
   + 4.1189040298788338e+09 w_13 + 2.2614149727088631e+10 w_14 + z_27
   >= -0.7774644616246915
 R56: - w_0 - 0.0547625611524515 w_1 - 0.00299893810397599 w_2
   - 1.642295313114024e-04 w_3 - 8.99363e-06 w_4 - 4.92514e-07 w_5
   - 2.69713e-08 w_6 - 1.47702e-09 w_7 - 8.08854e-11 w_8 - 4.42949e-12 w_9
   - 2.4257e-13 w_10 + z_28 >= 0.0573154934705085
 R57: w_0 + 0.0547625611524515 w_1 + 0.00299893810397599 w_2
   + 1.642295313114024e-04 w_3 + 8.99363e-06 w_4 + 4.92514e-07 w_5
   + 2.69713e-08 w_6 + 1.47702e-09 w_7 + 8.08854e-11 w_8 + 4.42949e-12 w_9
   + 2.4257e-13 w_10 + z_28 >= -0.0573154934705085
 R58: - w_0 - 4.69088312615504 w_1 - 22.00438450324608 w_2
   - 103.2199959677045 w_3 - 484.1929373666961 w_4 - 2271.292479696879 w_5
   - 10654.36756757293 w_6 - 49978.39304258136 w_7 - 234442.8005957893 w_8
   - 1.0997437773633187e+06 w_9 - 5.1587695283275973e+06 w_10
   - 2.4199184932154719e+07 w_11 - 1.1351554826494986e+08 w_12
   - 5.3248816991229123e+08 w_13 - 2.4978397711187449e+09 w_14 + z_29
   >= 1.03442943678438
 R59: w_0 + 4.69088312615504 w_1 + 22.00438450324608 w_2
   + 103.2199959677045 w_3 + 484.1929373666961 w_4 + 2271.292479696879 w_5
   + 10654.36756757293 w_6 + 49978.39304258136 w_7 + 234442.8005957893 w_8
   + 1.0997437773633187e+06 w_9 + 5.1587695283275973e+06 w_10
   + 2.4199184932154719e+07 w_11 + 1.1351554826494986e+08 w_12
   + 5.3248816991229123e+08 w_13 + 2.4978397711187449e+09 w_14 + z_29
   >= -1.03442943678438
 R60: - w_0 - 5.107231702714333 w_1 - 26.08381566521035 w_2
   - 133.2160902931191 w_3 - 680.3654396566728 w_4 - 3474.783942845736 w_5
   - 17746.52671298445 w_6 - 90635.62384162098 w_7 - 462897.1314792177 w_8
   - 2.364122904986186e+06 w_9 - 1.2074123449458554e+07 w_10
   - 6.1665346063561276e+07 w_11 - 3.1493921037467068e+08 w_12
   - 1.608467519653337e+09 w_13 - 8.2148163091598129e+09 w_14 + z_30
   >= 1.014191552818329
 R61: w_0 + 5.107231702714333 w_1 + 26.08381566521035 w_2
   + 133.2160902931191 w_3 + 680.3654396566728 w_4 + 3474.783942845736 w_5
   + 17746.52671298445 w_6 + 90635.62384162098 w_7 + 462897.1314792177 w_8
   + 2.364122904986186e+06 w_9 + 1.2074123449458554e+07 w_10
   + 6.1665346063561276e+07 w_11 + 3.1493921037467068e+08 w_12
   + 1.608467519653337e+09 w_13 + 8.2148163091598129e+09 w_14 + z_30
   >= -1.014191552818329
 R62: - w_0 - 0.4757467452867475 w_1 - 0.2263349656509334 w_2
   - 0.1076781232530194 w_3 - 0.0512275166762092 w_4
   - 0.0243713243278291 w_5 - 0.0115945782272924 w_6
   - 0.00551608285460696 w_7 - 0.00262425846481129 w_8
   - 0.00124848242342517 w_9 - 5.9396144949223483e-04 w_10
   - 2.8257522642172959e-04 w_11 - 1.3443424426880357e-04 w_12
   - 6.39567e-05 w_13 - 3.04272e-05 w_14 + z_31 >= -0.3833888694865031
 R63: w_0 + 0.4757467452867475 w_1 + 0.2263349656509334 w_2
   + 0.1076781232530194 w_3 + 0.0512275166762092 w_4
   + 0.0243713243278291 w_5 + 0.0115945782272924 w_6
   + 0.00551608285460696 w_7 + 0.00262425846481129 w_8
   + 0.00124848242342517 w_9 + 5.9396144949223483e-04 w_10
   + 2.8257522642172959e-04 w_11 + 1.3443424426880357e-04 w_12
   + 6.39567e-05 w_13 + 3.04272e-05 w_14 + z_31 >= 0.3833888694865031
 R64: - w_0 - 4.124630513159264 w_1 - 17.01257687008446 w_2
   - 70.17059366581788 w_3 - 289.4277717605326 w_4 - 1193.782618759188 w_5
   - 4923.91221541332 w_6 - 20309.31856781141 w_7 - 83768.43506626695 w_8
   - 345513.8433139251 w_9 - 1.4251169408515447e+06 w_10
   - 5.8780808190564681e+06 w_11 - 2.4244911505096506e+07 w_12
   - 1.0000130178276715e+08 w_13 - 4.1246842068884933e+08 w_14 + z_32
   >= 0.9092825448591436
 R65: w_0 + 4.124630513159264 w_1 + 17.01257687008446 w_2
   + 70.17059366581788 w_3 + 289.4277717605326 w_4 + 1193.782618759188 w_5
   + 4923.91221541332 w_6 + 20309.31856781141 w_7 + 83768.43506626695 w_8
   + 345513.8433139251 w_9 + 1.4251169408515447e+06 w_10
   + 5.8780808190564681e+06 w_11 + 2.4244911505096506e+07 w_12
   + 1.0000130178276715e+08 w_13 + 4.1246842068884933e+08 w_14 + z_32
   >= -0.9092825448591436
 R66: - w_0 - 3.199788773066712 w_1 - 10.23864819224378 w_2
   - 32.76151153692143 w_3 - 104.8299168045367 w_4 - 335.4335908726741 w_5
   - 1073.316638183835 w_6 - 3434.386528806343 w_7 - 10989.31145724609 w_8
   - 35163.47542462945 w_9 - 112515.6938857365 w_10
   - 360026.4540893907 w_11 - 1.1520086058022506e+06 w_12
   - 3.6861842033222769e+06 w_13 - 1.1795010829246486e+07 w_14 + z_33
   >= 0.0995586467656337
 R67: w_0 + 3.199788773066712 w_1 + 10.23864819224378 w_2
   + 32.76151153692143 w_3 + 104.8299168045367 w_4 + 335.4335908726741 w_5
   + 1073.316638183835 w_6 + 3434.386528806343 w_7 + 10989.31145724609 w_8
   + 35163.47542462945 w_9 + 112515.6938857365 w_10
   + 360026.4540893907 w_11 + 1.1520086058022506e+06 w_12
   + 3.6861842033222769e+06 w_13 + 1.1795010829246486e+07 w_14 + z_33
   >= -0.0995586467656337
 R68: - w_0 - 3.015196274609584 w_1 - 9.091408574419514 w_2
   - 27.41238126454335 w_3 - 82.65370986702865 w_4 - 249.2171580737262 w_5
   - 751.4386465926871 w_6 - 2265.735007803938 w_7 - 6831.635754782949 w_8
   - 20598.72267731118 w_9 - 62109.19187834463 w_10
   - 187271.4039705966 w_11 - 564660.0395930492 w_12
   - 1.7025608478018621e+06 w_13 - 5.13355512558831e+06 w_14 + z_34
   >= -0.0968789565993768
 R69: w_0 + 3.015196274609584 w_1 + 9.091408574419514 w_2
   + 27.41238126454335 w_3 + 82.65370986702865 w_4 + 249.2171580737262 w_5
   + 751.4386465926871 w_6 + 2265.735007803938 w_7 + 6831.635754782949 w_8
   + 20598.72267731118 w_9 + 62109.19187834463 w_10
   + 187271.4039705966 w_11 + 564660.0395930492 w_12
   + 1.7025608478018621e+06 w_13 + 5.13355512558831e+06 w_14 + z_34
   >= 0.0968789565993768
 R70: - w_0 - 6.004049427351572 w_1 - 36.04860952608074 w_2
   - 216.4376333818855 w_3 - 1299.502248763839 w_4 - 7802.275732532608 w_5
   - 46845.24914395148 w_6 - 281261.1912968836 w_7
   - 1.688706094542275e+06 w_8 - 1.0139074859901655e+07 w_9
   - 6.0875506606467254e+07 w_10 - 3.6549955058029658e+08 w_11
   - 2.1944773673588867e+09 w_12 - 1.3175750580827108e+10 w_13
   - 7.9107857729742142e+10 w_14 + z_35 >= 0.2628478036263449
 R71: w_0 + 6.004049427351572 w_1 + 36.04860952608074 w_2
   + 216.4376333818855 w_3 + 1299.502248763839 w_4 + 7802.275732532608 w_5
   + 46845.24914395148 w_6 + 281261.1912968836 w_7
   + 1.688706094542275e+06 w_8 + 1.0139074859901655e+07 w_9
   + 6.0875506606467254e+07 w_10 + 3.6549955058029658e+08 w_11
   + 2.1944773673588867e+09 w_12 + 1.3175750580827108e+10 w_13
   + 7.9107857729742142e+10 w_14 + z_35 >= -0.2628478036263449
 R72: - w_0 - 7.56091e-05 w_1 - 5.71674e-09 w_2 - 4.32238e-13 w_3 + z_36
   >= 0.1246580065175297
 R73: w_0 + 7.56091e-05 w_1 + 5.71674e-09 w_2 + 4.32238e-13 w_3 + z_36
   >= -0.1246580065175297
 R74: - w_0 - 1.551812945258709 w_1 - 2.408123417072508 w_2
   - 3.736957092393756 w_3 - 5.799058391852975 w_4 - 8.999053882788596 w_5
   - 13.96484831039199 w_6 - 21.6708323866405 w_7 - 33.62907823212041 w_8
   - 52.1860389377223 w_9 - 80.98297078533251 w_10 - 125.6704224101868 w_11
   - 195.016988332258 w_12 - 302.6298870393646 w_13
   - 469.6249763298667 w_14 + z_37 >= -1.031536917097885
 R75: w_0 + 1.551812945258709 w_1 + 2.408123417072508 w_2
   + 3.736957092393756 w_3 + 5.799058391852975 w_4 + 8.999053882788596 w_5
   + 13.96484831039199 w_6 + 21.6708323866405 w_7 + 33.62907823212041 w_8
   + 52.1860389377223 w_9 + 80.98297078533251 w_10 + 125.6704224101868 w_11
   + 195.016988332258 w_12 + 302.6298870393646 w_13
   + 469.6249763298667 w_14 + z_37 >= 1.031536917097885
 R76: - w_0 - 4.475089897147232 w_1 - 20.02642958754922 w_2
   - 89.62007272317192 w_3 - 401.0578820250669 w_4 - 1794.770076021643 w_5
   - 8031.757434906624 w_6 - 35942.83655328779 w_7 - 160847.4247344325 w_8
   - 719806.6854112084 w_9 - 3.2211996257827342e+06 w_10
   - 1.4415157902034758e+07 w_11 - 6.4509127493177831e+07 w_12
   - 2.8868414471850282e+08 w_13 - 1.2918874994963613e+09 w_14 + z_38
   >= 1.153818588216085
 R77: w_0 + 4.475089897147232 w_1 + 20.02642958754922 w_2
   + 89.62007272317192 w_3 + 401.0578820250669 w_4 + 1794.770076021643 w_5
   + 8031.757434906624 w_6 + 35942.83655328779 w_7 + 160847.4247344325 w_8
   + 719806.6854112084 w_9 + 3.2211996257827342e+06 w_10
   + 1.4415157902034758e+07 w_11 + 6.4509127493177831e+07 w_12
   + 2.8868414471850282e+08 w_13 + 1.2918874994963613e+09 w_14 + z_38
   >= -1.153818588216085
 R78: - w_0 - 2.039409166194109 w_1 - 4.15918974715655 w_2
   - 8.482289694291625 w_3 - 17.29885935285217 w_4 - 35.27945232890939 w_5
   - 71.94923845788591 w_6 - 146.7339364116982 w_7 - 299.2505349097608 w_8
   - 610.2942838834563 w_9 - 1244.63975662779 w_10 - 2538.32972827632 w_11
   - 5176.692914669728 w_12 - 10557.39498074954 w_13
   - 21530.84809487229 w_14 + z_39 >= -0.8977648755606743
 R79: w_0 + 2.039409166194109 w_1 + 4.15918974715655 w_2
   + 8.482289694291625 w_3 + 17.29885935285217 w_4 + 35.27945232890939 w_5
   + 71.94923845788591 w_6 + 146.7339364116982 w_7 + 299.2505349097608 w_8
   + 610.2942838834563 w_9 + 1244.63975662779 w_10 + 2538.32972827632 w_11
   + 5176.692914669728 w_12 + 10557.39498074954 w_13
   + 21530.84809487229 w_14 + z_39 >= 0.8977648755606743
 R80: - w_0 - 1.740419436573032 w_1 - 3.029059815201191 w_2
   - 5.271834576918469 w_3 - 9.17520336406667 w_4 - 15.9687022693319 w_5
   - 27.79223980639313 w_6 - 48.37015434494533 w_7 - 84.18435677198035 w_8
   - 146.5160907813532 w_9 - 254.9994521665659 w_10
   - 443.8060028661665 w_11 - 772.4085934560629 w_12
   - 1344.314929026969 w_13 - 2339.671831353834 w_14 + z_40
   >= -0.993735078921257
 R81: w_0 + 1.740419436573032 w_1 + 3.029059815201191 w_2
   + 5.271834576918469 w_3 + 9.17520336406667 w_4 + 15.9687022693319 w_5
   + 27.79223980639313 w_6 + 48.37015434494533 w_7 + 84.18435677198035 w_8
   + 146.5160907813532 w_9 + 254.9994521665659 w_10
   + 443.8060028661665 w_11 + 772.4085934560629 w_12
   + 1344.314929026969 w_13 + 2339.671831353834 w_14 + z_40
   >= 0.993735078921257
 R82: - w_0 - 4.369612649428849 w_1 - 19.09351470604861 w_2
   - 83.43126338160576 w_3 - 364.5623038300945 w_4 - 1592.996054320904 w_5
   - 6960.775709450871 w_6 - 30415.8935898536 w_7 - 132905.6733739061 w_8
   - 580746.3115554793 w_9 - 2.5376364290819699e+06 w_10
   - 1.1088488240168029e+07 w_11 - 4.8452398477281265e+07 w_12
   - 2.1171821328149533e+08 w_13 - 9.2512658286929715e+08 w_14 + z_41
   >= 1.173809918238849
 R83: w_0 + 4.369612649428849 w_1 + 19.09351470604861 w_2
   + 83.43126338160576 w_3 + 364.5623038300945 w_4 + 1592.996054320904 w_5
   + 6960.775709450871 w_6 + 30415.8935898536 w_7 + 132905.6733739061 w_8
   + 580746.3115554793 w_9 + 2.5376364290819699e+06 w_10
   + 1.1088488240168029e+07 w_11 + 4.8452398477281265e+07 w_12
   + 2.1171821328149533e+08 w_13 + 9.2512658286929715e+08 w_14 + z_41
   >= -1.173809918238849
 R84: - w_0 - 5.771430847834749 w_1 - 33.30941403133853 w_2
   - 192.2429796637668 w_3 - 1109.517063111132 w_4 - 6403.5010042386 w_5
   - 36957.36323000345 w_6 - 213296.8662002756 w_7
   - 1.2310281133347515e+06 w_8 - 7.1047936278519956e+06 w_9
   - 4.1004825111284763e+07 w_10 - 2.3665651255733779e+08 w_11
   - 1.3658466969144111e+09 w_12 - 7.8828897599850302e+09 w_13
   - 4.5495553130858261e+10 w_14 + z_42 >= 0.5238198066507649
 R85: w_0 + 5.771430847834749 w_1 + 33.30941403133853 w_2
   + 192.2429796637668 w_3 + 1109.517063111132 w_4 + 6403.5010042386 w_5
   + 36957.36323000345 w_6 + 213296.8662002756 w_7
   + 1.2310281133347515e+06 w_8 + 7.1047936278519956e+06 w_9
   + 4.1004825111284763e+07 w_10 + 2.3665651255733779e+08 w_11
   + 1.3658466969144111e+09 w_12 + 7.8828897599850302e+09 w_13
   + 4.5495553130858261e+10 w_14 + z_42 >= -0.5238198066507649
 R86: - w_0 - 1.536086140012825 w_1 - 2.359560629539499 w_2
   - 3.62448837955556 w_3 - 5.567526364472839 w_4 - 8.552200082622718 w_5
   - 13.13691601353329 w_6 - 20.17943461090102 w_7 - 30.99734981910014 w_8
   - 47.61459943424877 w_9 - 73.14012625321202 w_10
   - 112.3495342163471 w_11 - 172.5785623466274 w_12
   - 265.0955376839935 w_13 - 407.20958121563 w_14 + z_43
   >= -1.108382273050341
 R87: w_0 + 1.536086140012825 w_1 + 2.359560629539499 w_2
   + 3.62448837955556 w_3 + 5.567526364472839 w_4 + 8.552200082622718 w_5
   + 13.13691601353329 w_6 + 20.17943461090102 w_7 + 30.99734981910014 w_8
   + 47.61459943424877 w_9 + 73.14012625321202 w_10
   + 112.3495342163471 w_11 + 172.5785623466274 w_12
   + 265.0955376839935 w_13 + 407.20958121563 w_14 + z_43
   >= 1.108382273050341
 R88: - w_0 - 2.878238076540714 w_1 - 8.284254425248792 w_2
   - 23.84405652250198 w_3 - 68.62887138225418 w_4 - 197.5302307624193 w_5
   - 568.5390314482692 w_6 - 1636.390688313987 w_7 - 4709.921987201986 w_8
   - 13556.27680110106 w_9 - 39018.19206505462 w_10 - 112303.646079419 w_11
   - 323236.630280136 w_12 - 930351.9770050008 w_13
   - 2.6777744848007243e+06 w_14 + z_44 >= -0.3053740468876147
 R89: w_0 + 2.878238076540714 w_1 + 8.284254425248792 w_2
   + 23.84405652250198 w_3 + 68.62887138225418 w_4 + 197.5302307624193 w_5
   + 568.5390314482692 w_6 + 1636.390688313987 w_7 + 4709.921987201986 w_8
   + 13556.27680110106 w_9 + 39018.19206505462 w_10 + 112303.646079419 w_11
   + 323236.630280136 w_12 + 930351.9770050008 w_13
   + 2.6777744848007243e+06 w_14 + z_44 >= 0.3053740468876147
 R90: - w_0 - 1.589599907528034 w_1 - 2.526827866013136 w_2
   - 4.016645342153741 w_3 - 6.384859064460498 w_4 - 10.14937137844594 w_5
   - 16.13343980464535 w_6 - 25.64571442157335 w_7 - 40.76642527302338 w_8
   - 64.80230584424649 w_9 - 103.0097393776176 w_10
   - 163.7442721891479 w_11 - 260.2878799301149 w_12
   - 413.7535898675787 w_13 - 657.7026681928954 w_14 + z_45
   >= -0.9503933531449176
 R91: w_0 + 1.589599907528034 w_1 + 2.526827866013136 w_2
   + 4.016645342153741 w_3 + 6.384859064460498 w_4 + 10.14937137844594 w_5
   + 16.13343980464535 w_6 + 25.64571442157335 w_7 + 40.76642527302338 w_8
   + 64.80230584424649 w_9 + 103.0097393776176 w_10
   + 163.7442721891479 w_11 + 260.2878799301149 w_12
   + 413.7535898675787 w_13 + 657.7026681928954 w_14 + z_45
   >= 0.9503933531449176
 R92: - w_0 - 2.383421363570473 w_1 - 5.680697396324131 w_2
   - 13.53949553437809 w_3 - 32.27032290860376 w_4 - 76.91377702968384 w_5
   - 183.3179393254443 w_6 - 436.9238929139797 w_7 - 1041.373740625557 w_8
   - 2482.032420868248 w_9 - 5915.729096971922 w_10
   - 14099.67511081834 w_11 - 33605.4668785273 w_12
   - 80095.98769104188 w_13 - 190902.4881991068 w_14 + z_46
   >= -0.6329371048918548
 R93: w_0 + 2.383421363570473 w_1 + 5.680697396324131 w_2
   + 13.53949553437809 w_3 + 32.27032290860376 w_4 + 76.91377702968384 w_5
   + 183.3179393254443 w_6 + 436.9238929139797 w_7 + 1041.373740625557 w_8
   + 2482.032420868248 w_9 + 5915.729096971922 w_10
   + 14099.67511081834 w_11 + 33605.4668785273 w_12
   + 80095.98769104188 w_13 + 190902.4881991068 w_14 + z_46
   >= 0.6329371048918548
 R94: - w_0 - 3.798429485678325 w_1 - 14.4280665576705 w_2
   - 54.80399343398501 w_3 - 208.1691045925699 w_4 - 790.7156648916729 w_5
   - 3003.477696312271 w_6 - 11408.49824124974 w_7 - 43334.37610687233 w_8
   - 164602.5719478181 w_9 - 625231.2627050802 w_10
   - 2.3748968636268675e+06 w_11 - 9.0208782722452693e+06 w_12
   - 3.4265170016011372e+07 w_13 - 1.3015383212059842e+08 w_14 + z_47
   >= 0.581412261773786
 R95: w_0 + 3.798429485678325 w_1 + 14.4280665576705 w_2
   + 54.80399343398501 w_3 + 208.1691045925699 w_4 + 790.7156648916729 w_5
   + 3003.477696312271 w_6 + 11408.49824124974 w_7 + 43334.37610687233 w_8
   + 164602.5719478181 w_9 + 625231.2627050802 w_10
   + 2.3748968636268675e+06 w_11 + 9.0208782722452693e+06 w_12
   + 3.4265170016011372e+07 w_13 + 1.3015383212059842e+08 w_14 + z_47
   >= -0.581412261773786
 R96: - w_0 - 4.852998874402474 w_1 - 23.55159807495168 w_2
   - 114.29587894812 w_3 - 554.6777718840679 w_4 - 2691.850602609454 w_5
   - 13063.5479445233 w_6 - 63397.38347047433 w_7 - 307667.430622274 w_8
   - 1.493109694500197e+06 w_9 - 7.2460596667688787e+06 w_10
   - 3.5165119406682536e+07 w_11 - 1.7065628489885893e+08 w_12
   - 8.2819475852387047e+08 w_13 - 4.0192282309023724e+09 w_14 + z_48
   >= 0.9747102462728154
 R97: w_0 + 4.852998874402474 w_1 + 23.55159807495168 w_2
   + 114.29587894812 w_3 + 554.6777718840679 w_4 + 2691.850602609454 w_5
   + 13063.5479445233 w_6 + 63397.38347047433 w_7 + 307667.430622274 w_8
   + 1.493109694500197e+06 w_9 + 7.2460596667688787e+06 w_10
   + 3.5165119406682536e+07 w_11 + 1.7065628489885893e+08 w_12
   + 8.2819475852387047e+08 w_13 + 4.0192282309023724e+09 w_14 + z_48
   >= -0.9747102462728154
 R98: - w_0 - 0.4267382179590818 w_1 - 0.1821055066668928 w_2
   - 0.0777113793955655 w_3 - 0.0331624155584058 w_4
   - 0.0141516701186126 w_5 - 0.00603905848756153 w_6
   - 0.00257709705713268 w_7 - 0.00109974580566839 w_8
   - 4.6930356531890434e-04 w_9 - 2.002697671460328e-04 w_10
   - 8.54628e-05 w_11 - 3.64702e-05 w_12 - 1.55632e-05 w_13
   - 6.64143e-06 w_14 + z_49 >= -0.4956342938429391
 R99: w_0 + 0.4267382179590818 w_1 + 0.1821055066668928 w_2
   + 0.0777113793955655 w_3 + 0.0331624155584058 w_4
   + 0.0141516701186126 w_5 + 0.00603905848756153 w_6
   + 0.00257709705713268 w_7 + 0.00109974580566839 w_8
   + 4.6930356531890434e-04 w_9 + 2.002697671460328e-04 w_10
   + 8.54628e-05 w_11 + 3.64702e-05 w_12 + 1.55632e-05 w_13
   + 6.64143e-06 w_14 + z_49 >= 0.4956342938429391
 R100: - w_0 - 4.31079968902487 w_1 - 18.58299395889692 w_2
   - 80.10756457916388 w_3 - 345.3276644763994 w_4 - 1488.638388636547 w_5
   - 6417.221902804911 w_6 - 27663.358183015 w_7 - 119251.1958527247 w_8
   - 514068.0179977693 w_9 - 2.2160442521224157e+06 w_10
   - 9.5529228729146607e+06 w_11 - 4.1180736949839093e+07 w_12
   - 1.7752190803718135e+08 w_13 - 7.6526138596178293e+08 w_14 + z_50
   >= 0.9060653537888512
 R101: w_0 + 4.31079968902487 w_1 + 18.58299395889692 w_2
   + 80.10756457916388 w_3 + 345.3276644763994 w_4 + 1488.638388636547 w_5
   + 6417.221902804911 w_6 + 27663.358183015 w_7 + 119251.1958527247 w_8
   + 514068.0179977693 w_9 + 2.2160442521224157e+06 w_10
   + 9.5529228729146607e+06 w_11 + 4.1180736949839093e+07 w_12
   + 1.7752190803718135e+08 w_13 + 7.6526138596178293e+08 w_14 + z_50
   >= -0.9060653537888512
 R102: - w_0 - 3.444819788470298 w_1 - 11.86678337503655 w_2
   - 40.87893019581626 w_3 - 140.8205476700439 w_4 - 485.101409236992 w_5
   - 1671.086933954419 w_6 - 5756.593338340339 w_7 - 19830.42664609109 w_8
   - 68312.24612426329 w_9 - 235323.3772437156 w_10
   - 810646.6266188127 w_11 - 2.7925315408331789e+06 w_12
   - 9.6197679117895886e+06 w_13 - 3.3138366863024369e+07 w_14 + z_51
   >= 0.2080845088674707
 R103: w_0 + 3.444819788470298 w_1 + 11.86678337503655 w_2
   + 40.87893019581626 w_3 + 140.8205476700439 w_4 + 485.101409236992 w_5
   + 1671.086933954419 w_6 + 5756.593338340339 w_7 + 19830.42664609109 w_8
   + 68312.24612426329 w_9 + 235323.3772437156 w_10
   + 810646.6266188127 w_11 + 2.7925315408331789e+06 w_12
   + 9.6197679117895886e+06 w_13 + 3.3138366863024369e+07 w_14 + z_51
   >= -0.2080845088674707
 R104: - w_0 - 0.8669919392863893 w_1 - 0.7516750227875741 w_2
   - 0.6516961857197398 w_3 - 0.5650153398827001 w_4
   - 0.4898637452514605 w_5 - 0.4247079184816575 w_6
   - 0.368218341874698 w_7 - 0.3192423343027631 w_8
   - 0.2767805305194664 w_9 - 0.2399664889117878 w_10
   - 0.2080490115853768 w_11 - 0.1803768160210223 w_12
   - 0.1563852455243704 w_13 - 0.135584747292952 w_14 + z_52
   >= -0.8024531713778842
 R105: w_0 + 0.8669919392863893 w_1 + 0.7516750227875741 w_2
   + 0.6516961857197398 w_3 + 0.5650153398827001 w_4
   + 0.4898637452514605 w_5 + 0.4247079184816575 w_6
   + 0.368218341874698 w_7 + 0.3192423343027631 w_8
   + 0.2767805305194664 w_9 + 0.2399664889117878 w_10
   + 0.2080490115853768 w_11 + 0.1803768160210223 w_12
   + 0.1563852455243704 w_13 + 0.135584747292952 w_14 + z_52
   >= 0.8024531713778842
 R106: - w_0 - 0.6204847759450284 w_1 - 0.3850013571795521 w_2
   - 0.2388874808480862 w_3 - 0.148226045030097 w_4
   - 0.0919720043397174 w_5 - 0.0570672285059448 w_6
   - 0.0354093464933149 w_7 - 0.0219709604252644 w_8
   - 0.0136326464567672 w_9 - 0.008458849582265 w_10
   - 0.0052485873878044 w_11 - 0.00325666856934971 w_12
   - 0.00202071326758017 w_13 - 0.00125382181908363 w_14 + z_53
   >= -0.5049702510836511
 R107: w_0 + 0.6204847759450284 w_1 + 0.3850013571795521 w_2
   + 0.2388874808480862 w_3 + 0.148226045030097 w_4
   + 0.0919720043397174 w_5 + 0.0570672285059448 w_6
   + 0.0354093464933149 w_7 + 0.0219709604252644 w_8
   + 0.0136326464567672 w_9 + 0.008458849582265 w_10
   + 0.0052485873878044 w_11 + 0.00325666856934971 w_12
   + 0.00202071326758017 w_13 + 0.00125382181908363 w_14 + z_53
   >= 0.5049702510836511
 R108: - w_0 - 1.542893362620041 w_1 - 2.380519928416977 w_2
   - 3.672888397139288 w_3 - 5.666875129590367 w_4 - 8.743384024241561 w_5
   - 13.4901091778404 w_6 - 20.81379991150965 w_7 - 32.11347373436984 w_8
   - 49.54766547543223 w_9 - 76.44676419536255 w_10
   - 117.9492050708042 w_11 - 181.9830456300539 w_12
   - 280.7804332119902 w_13 - 433.2142667563593 w_14 + z_54
   >= -0.897910534997546
 R109: w_0 + 1.542893362620041 w_1 + 2.380519928416977 w_2
   + 3.672888397139288 w_3 + 5.666875129590367 w_4 + 8.743384024241561 w_5
   + 13.4901091778404 w_6 + 20.81379991150965 w_7 + 32.11347373436984 w_8
   + 49.54766547543223 w_9 + 76.44676419536255 w_10
   + 117.9492050708042 w_11 + 181.9830456300539 w_12
   + 280.7804332119902 w_13 + 433.2142667563593 w_14 + z_54
   >= 0.897910534997546
 R110: - w_0 - 0.9537037281765837 w_1 - 0.909550801137915 w_2
   - 0.867441990011228 w_3 - 0.827282659850623 w_4 - 0.7889825569553797 w_5
   - 0.7524556060346393 w_6 - 0.7176197167626062 w_7
   - 0.6843965992895216 w_8 - 0.6527115882937921 w_9
   - 0.6224934751798489 w_10 - 0.5936743480446195 w_11
   - 0.5661894390529564 w_12 - 0.5399769788790131 w_13
   - 0.5149780578864431 w_14 + z_55 >= -0.7628653915333664
 R111: w_0 + 0.9537037281765837 w_1 + 0.909550801137915 w_2
   + 0.867441990011228 w_3 + 0.827282659850623 w_4 + 0.7889825569553797 w_5
   + 0.7524556060346393 w_6 + 0.7176197167626062 w_7
   + 0.6843965992895216 w_8 + 0.6527115882937921 w_9
   + 0.6224934751798489 w_10 + 0.5936743480446195 w_11
   + 0.5661894390529564 w_12 + 0.5399769788790131 w_13
   + 0.5149780578864431 w_14 + z_55 >= 0.7628653915333664
 R112: - w_0 - 5.818194908062345 w_1 - 33.85139198820261 w_2
   - 196.9539964965829 w_3 - 1145.916739538947 w_4 - 6667.166939048909 w_5
   - 38790.87673597597 w_6 - 225692.8815045295 w_7
   - 1.3131251739555718e+06 w_8 - 7.6400182007567901e+06 w_9
   - 4.44511149931468e+07 w_10 - 2.5862525091082048e+08 w_11
   - 1.504732117945682e+09 w_12 - 8.7548247466294365e+09 w_13
   - 5.0937276761817596e+10 w_14 + z_56 >= 0.407548355318443
 R113: w_0 + 5.818194908062345 w_1 + 33.85139198820261 w_2
   + 196.9539964965829 w_3 + 1145.916739538947 w_4 + 6667.166939048909 w_5
   + 38790.87673597597 w_6 + 225692.8815045295 w_7
   + 1.3131251739555718e+06 w_8 + 7.6400182007567901e+06 w_9
   + 4.44511149931468e+07 w_10 + 2.5862525091082048e+08 w_11
   + 1.504732117945682e+09 w_12 + 8.7548247466294365e+09 w_13
   + 5.0937276761817596e+10 w_14 + z_56 >= -0.407548355318443
 R114: - w_0 - 4.27322584138623 w_1 - 18.26045909149105 w_2
   - 78.03106566533569 w_3 - 333.4443662320183 w_4 - 1424.883082447315 w_5
   - 6088.847208867931 w_6 - 26019.01923718686 w_7 - 111185.1453718723 w_8
   - 475119.2363813695 w_9 - 2.0302917986445606e+06 w_10
   - 8.6758953795224652e+06 w_11 - 3.707406033293879e+07 w_12
   - 1.5842583265982622e+08 w_13 - 6.7698936206510007e+08 w_14 + z_57
   >= 0.9918877799830897
 R115: w_0 + 4.27322584138623 w_1 + 18.26045909149105 w_2
   + 78.03106566533569 w_3 + 333.4443662320183 w_4 + 1424.883082447315 w_5
   + 6088.847208867931 w_6 + 26019.01923718686 w_7 + 111185.1453718723 w_8
   + 475119.2363813695 w_9 + 2.0302917986445606e+06 w_10
   + 8.6758953795224652e+06 w_11 + 3.707406033293879e+07 w_12
   + 1.5842583265982622e+08 w_13 + 6.7698936206510007e+08 w_14 + z_57
   >= -0.9918877799830897
 R116: - w_0 - 1.493255046074567 w_1 - 2.229810632627158 w_2
   - 3.329675978961227 w_3 - 4.972055457377127 w_4 - 7.424546901090985 w_5
   - 11.0867421248714 w_6 - 16.55533362249169 w_7 - 24.72133547123367 w_8
   - 36.91525893812187 w_9 - 55.12389668649975 w_10
   - 82.31403688640887 w_11 - 122.9158509433981 w_12
   - 183.5447146637786 w_13 - 274.079071352004 w_14 + z_58
   >= -1.086174597525271
 R117: w_0 + 1.493255046074567 w_1 + 2.229810632627158 w_2
   + 3.329675978961227 w_3 + 4.972055457377127 w_4 + 7.424546901090985 w_5
   + 11.0867421248714 w_6 + 16.55533362249169 w_7 + 24.72133547123367 w_8
   + 36.91525893812187 w_9 + 55.12389668649975 w_10
   + 82.31403688640887 w_11 + 122.9158509433981 w_12
   + 183.5447146637786 w_13 + 274.079071352004 w_14 + z_58
   >= 1.086174597525271
 R118: - w_0 - 3.574411460334529 w_1 - 12.77641728777082 w_2
   - 45.66817237542421 w_3 - 163.236838711249 w_4 - 583.4756270382676 w_5
   - 2085.581968111459 w_6 - 7454.72808828464 w_7 - 26646.26551244233 w_8
   - 95244.71682279058 w_9 - 340443.8073476995 w_10
   - 1.2168862465835377e+06 w_11 - 4.349652145711666e+06 w_12
   - 1.5547446478100453e+07 w_13 - 5.5572970870259963e+07 w_14 + z_59
   >= 0.5733377536493486
 R119: w_0 + 3.574411460334529 w_1 + 12.77641728777082 w_2
   + 45.66817237542421 w_3 + 163.236838711249 w_4 + 583.4756270382676 w_5
   + 2085.581968111459 w_6 + 7454.72808828464 w_7 + 26646.26551244233 w_8
   + 95244.71682279058 w_9 + 340443.8073476995 w_10
   + 1.2168862465835377e+06 w_11 + 4.349652145711666e+06 w_12
   + 1.5547446478100453e+07 w_13 + 5.5572970870259963e+07 w_14 + z_59
   >= -0.5733377536493486
 R120: - w_0 - 3.49742232707787 w_1 - 12.23196293394279 w_2
   - 42.78034026916043 w_3 - 149.6209172173502 w_4 - 523.2875364738304 w_5
   - 1830.15751354515 w_6 - 6400.833749942127 w_7 - 22386.41886896117 w_8
   - 78294.7611756221 w_9 - 273829.8458288503 w_10 - 957698.6166221123 w_11
   - 3.3494765243857652e+06 w_12 - 1.1714533980409961e+07 w_13
   - 4.0970672694398187e+07 w_14 + z_60 >= 0.3747929270723845
 R121: w_0 + 3.49742232707787 w_1 + 12.23196293394279 w_2
   + 42.78034026916043 w_3 + 149.6209172173502 w_4 + 523.2875364738304 w_5
   + 1830.15751354515 w_6 + 6400.833749942127 w_7 + 22386.41886896117 w_8
   + 78294.7611756221 w_9 + 273829.8458288503 w_10 + 957698.6166221123 w_11
   + 3.3494765243857652e+06 w_12 + 1.1714533980409961e+07 w_13
   + 4.0970672694398187e+07 w_14 + z_60 >= -0.3747929270723845
 R122: - w_0 - 0.4570213747137573 w_1 - 0.2088685369452525 w_2
   - 0.0954573858891705 w_3 - 0.0436260657256503 w_4
   - 0.0199380445312894 w_5 - 0.00911211252079401 w_6
   - 0.00416443019079972 w_7 - 0.00190323361069876 w_8
   - 8.6981844116297579e-04 w_9 - 3.9752561973168061e-04 w_10
   - 1.8167770521371096e-04 w_11 - 8.30306e-05 w_12 - 3.79468e-05 w_13
   - 1.73425e-05 w_14 + z_61 >= -0.3480412105145744
 R123: w_0 + 0.4570213747137573 w_1 + 0.2088685369452525 w_2
   + 0.0954573858891705 w_3 + 0.0436260657256503 w_4
   + 0.0199380445312894 w_5 + 0.00911211252079401 w_6
   + 0.00416443019079972 w_7 + 0.00190323361069876 w_8
   + 8.6981844116297579e-04 w_9 + 3.9752561973168061e-04 w_10
   + 1.8167770521371096e-04 w_11 + 8.30306e-05 w_12 + 3.79468e-05 w_13
   + 1.73425e-05 w_14 + z_61 >= 0.3480412105145744
 R124: - w_0 - 5.276044174959913 w_1 - 27.83664213612843 w_2
   - 146.8673535927641 w_3 - 774.8786454148807 w_4 - 4088.293963442009 w_5
   - 21570.01955134199 w_6 - 113804.3760076293 w_7 - 600436.9151200004 w_8
   - 3.1679316884497777e+06 w_9 - 1.6714147531516371e+07 w_10
   - 8.8184580723077565e+07 w_11 - 4.652657434452756e+08 w_12
   - 2.4547626155128398e+09 w_13 - 1.2951435998485878e+10 w_14 + z_62
   >= 0.8140199947137859
 R125: w_0 + 5.276044174959913 w_1 + 27.83664213612843 w_2
   + 146.8673535927641 w_3 + 774.8786454148807 w_4 + 4088.293963442009 w_5
   + 21570.01955134199 w_6 + 113804.3760076293 w_7 + 600436.9151200004 w_8
   + 3.1679316884497777e+06 w_9 + 1.6714147531516371e+07 w_10
   + 8.8184580723077565e+07 w_11 + 4.652657434452756e+08 w_12
   + 2.4547626155128398e+09 w_13 + 1.2951435998485878e+10 w_14 + z_62
   >= -0.8140199947137859
 R126: - w_0 - 2.546697481234383 w_1 - 6.485668060925549 w_2
   - 16.51703451488138 w_3 - 42.06389019650976 w_4 - 107.124003214371 w_5
   - 272.8124291657826 w_6 - 694.7707262059321 w_7 - 1769.37085846403 w_8
   - 4506.052308619863 w_9 - 11475.55206467258 w_10
   - 29224.75953887567 w_11 - 74426.62150733518 w_12
   - 189542.0895295152 w_13 - 482706.3619927182 w_14 + z_63
   >= -0.5741009708122528
 R127: w_0 + 2.546697481234383 w_1 + 6.485668060925549 w_2
   + 16.51703451488138 w_3 + 42.06389019650976 w_4 + 107.124003214371 w_5
   + 272.8124291657826 w_6 + 694.7707262059321 w_7 + 1769.37085846403 w_8
   + 4506.052308619863 w_9 + 11475.55206467258 w_10
   + 29224.75953887567 w_11 + 74426.62150733518 w_12
   + 189542.0895295152 w_13 + 482706.3619927182 w_14 + z_63
   >= 0.5741009708122528
 R128: - w_0 - 0.9102512698124448 w_1 - 0.8285573741951681 w_2
   - 0.7541954019736167 w_3 - 0.6865073223331918 w_4
   - 0.6248941618893291 w_5 - 0.5688107043581453 w_6
   - 0.5177606659249129 w_7 - 0.4712923036170889 w_8
   - 0.4289944178202874 w_9 - 0.3904927135633671 w_10
   - 0.3554464883735622 w_11 - 0.3235456173924093 w_12
   - 0.294507809073692 w_13 - 0.2680761071790092 w_14 + z_64
   >= -0.7744879114030624
 R129: w_0 + 0.9102512698124448 w_1 + 0.8285573741951681 w_2
   + 0.7541954019736167 w_3 + 0.6865073223331918 w_4
   + 0.6248941618893291 w_5 + 0.5688107043581453 w_6
   + 0.5177606659249129 w_7 + 0.4712923036170889 w_8
   + 0.4289944178202874 w_9 + 0.3904927135633671 w_10
   + 0.3554464883735622 w_11 + 0.3235456173924093 w_12
   + 0.294507809073692 w_13 + 0.2680761071790092 w_14 + z_64
   >= 0.7744879114030624
 R130: - w_0 - 1.199586107459806 w_1 - 1.439006829210569 w_2
   - 1.726212600860785 w_3 - 2.070740654514656 w_4 - 2.484031721308007 w_5
   - 2.979809943370554 w_6 - 3.574538610937908 w_7 - 4.287966858259787 w_8
   - 5.143785472416512 w_9 - 6.170413592464422 w_10
   - 7.401942422801474 w_11 - 8.879267298610026 w_12
   - 10.65144569583475 w_13 - 12.77732628108591 w_14 + z_65
   >= -0.8082052588574444
 R131: w_0 + 1.199586107459806 w_1 + 1.439006829210569 w_2
   + 1.726212600860785 w_3 + 2.070740654514656 w_4 + 2.484031721308007 w_5
   + 2.979809943370554 w_6 + 3.574538610937908 w_7 + 4.287966858259787 w_8
   + 5.143785472416512 w_9 + 6.170413592464422 w_10
   + 7.401942422801474 w_11 + 8.879267298610026 w_12
   + 10.65144569583475 w_13 + 12.77732628108591 w_14 + z_65
   >= 0.8082052588574444
 R132: - w_0 - 3.082782900320397 w_1 - 9.503550410507838 w_2
   - 29.29738269784645 w_3 - 90.31747040506369 w_4 - 278.4291533649238 w_5
   - 858.3366329440724 w_6 - 2646.065494758572 w_7 - 8157.245460369555 w_8
   - 25147.01681894345 w_9 - 77522.79344350829 w_10
   - 238985.9420127175 w_11 - 736741.7754537674 w_12
   - 2.2712149473205637e+06 w_13 - 7.001662602551925e+06 w_14 + z_66
   >= 0.029473179803971
 R133: w_0 + 3.082782900320397 w_1 + 9.503550410507838 w_2
   + 29.29738269784645 w_3 + 90.31747040506369 w_4 + 278.4291533649238 w_5
   + 858.3366329440724 w_6 + 2646.065494758572 w_7 + 8157.245460369555 w_8
   + 25147.01681894345 w_9 + 77522.79344350829 w_10
   + 238985.9420127175 w_11 + 736741.7754537674 w_12
   + 2.2712149473205637e+06 w_13 + 7.001662602551925e+06 w_14 + z_66
   >= -0.029473179803971
 R134: - w_0 - 4.473781086639788 w_1 - 20.01471721117588 w_2
   - 89.54146331380254 w_3 - 400.5889050433403 w_4 - 1792.147066900638 w_5
   - 8017.673652377045 w_6 - 35869.31674485458 w_7 - 160471.4708438223 w_8
   - 717914.2312063604 w_9 - 3.2117911094005592e+06 w_10
   - 1.4368850319474045e+07 w_11 - 6.4283090796021067e+07 w_12
   - 2.8758847579398733e+08 w_13 - 1.2866078837427051e+09 w_14 + z_67
   >= 1.037731190711929
 R135: w_0 + 4.473781086639788 w_1 + 20.01471721117588 w_2
   + 89.54146331380254 w_3 + 400.5889050433403 w_4 + 1792.147066900638 w_5
   + 8017.673652377045 w_6 + 35869.31674485458 w_7 + 160471.4708438223 w_8
   + 717914.2312063604 w_9 + 3.2117911094005592e+06 w_10
   + 1.4368850319474045e+07 w_11 + 6.4283090796021067e+07 w_12
   + 2.8758847579398733e+08 w_13 + 1.2866078837427051e+09 w_14 + z_67
   >= -1.037731190711929
 R136: - w_0 - 6.188550845903096 w_1 - 38.29816157232793 w_2
   - 237.0101201949635 w_3 - 1466.749179820136 w_4 - 9077.051877503573 w_5
   - 56173.79707483103 w_6 - 347634.3994050344 w_7
   - 2.1513531565030403e+06 w_8 - 1.3313758396513186e+07 w_9
   - 8.2392870786891133e+07 w_10 - 5.0989247020459962e+08 w_11
   - 3.1554954778042941e+09 w_12 - 1.9527944208409161e+10 w_13
   - 1.2084967564969897e+11 w_14 + z_68 >= -0.00480164076035015
 R137: w_0 + 6.188550845903096 w_1 + 38.29816157232793 w_2
   + 237.0101201949635 w_3 + 1466.749179820136 w_4 + 9077.051877503573 w_5
   + 56173.79707483103 w_6 + 347634.3994050344 w_7
   + 2.1513531565030403e+06 w_8 + 1.3313758396513186e+07 w_9
   + 8.2392870786891133e+07 w_10 + 5.0989247020459962e+08 w_11
   + 3.1554954778042941e+09 w_12 + 1.9527944208409161e+10 w_13
   + 1.2084967564969897e+11 w_14 + z_68 >= 0.00480164076035015
 R138: - w_0 - 5.496445694620661 w_1 - 30.210915273914 w_2
   - 166.0526551878542 w_3 - 912.6994016876102 w_4 - 5016.602696888719 w_5
   - 27573.4842949364 w_6 - 151556.1590385936 w_7 - 833020.1978409217 w_8
   - 4.5786502799547855e+06 w_9 - 2.5166302618431166e+07 w_10
   - 1.3832521567659664e+08 w_11 - 7.6029703616310406e+08 w_12
   - 4.1789313710515423e+09 w_13 - 2.2969269342531464e+10 w_14 + z_69
   >= 0.7724343981987349
 R139: w_0 + 5.496445694620661 w_1 + 30.210915273914 w_2
   + 166.0526551878542 w_3 + 912.6994016876102 w_4 + 5016.602696888719 w_5
   + 27573.4842949364 w_6 + 151556.1590385936 w_7 + 833020.1978409217 w_8
   + 4.5786502799547855e+06 w_9 + 2.5166302618431166e+07 w_10
   + 1.3832521567659664e+08 w_11 + 7.6029703616310406e+08 w_12
   + 4.1789313710515423e+09 w_13 + 2.2969269342531464e+10 w_14 + z_69
   >= -0.7724343981987349
 R140: - w_0 - 3.135571375956256 w_1 - 9.831807853716212 w_2
   - 30.82833528001447 w_3 - 96.66444567239577 w_4 - 303.0982689230428 w_5
   - 950.3862561369848 w_6 - 2980.003940845361 w_7 - 9344.015057151555 w_8
   - 29298.82614970868 w_9 - 91868.56062414519 w_10
   - 288060.4290433717 w_11 - 903234.0358540745 w_12
   - 2.8321547886134833e+06 w_13 - 8.8804234874538798e+06 w_14 + z_70
   >= -0.0561380100276057
 R141: w_0 + 3.135571375956256 w_1 + 9.831807853716212 w_2
   + 30.82833528001447 w_3 + 96.66444567239577 w_4 + 303.0982689230428 w_5
   + 950.3862561369848 w_6 + 2980.003940845361 w_7 + 9344.015057151555 w_8
   + 29298.82614970868 w_9 + 91868.56062414519 w_10
   + 288060.4290433717 w_11 + 903234.0358540745 w_12
   + 2.8321547886134833e+06 w_13 + 8.8804234874538798e+06 w_14 + z_70
   >= 0.0561380100276057
 R142: - w_0 - 0.6709184893619959 w_1 - 0.4501316193677827 w_2
   - 0.3020016260803017 w_3 - 0.2026184747546624 w_4
   - 0.1359404809992298 w_5 - 0.0912049821551464 w_6
   - 0.0611911088498186 w_7 - 0.0410542463119058 w_8
   - 0.0275440529174791 w_9 - 0.018479814374302 w_10
   - 0.0123984491436968 w_11 - 0.00831834876992057 w_12
   - 0.00558093399070132 w_13 - 0.00374435180227035 w_14 + z_71
   >= -0.7137041699874268
 R143: w_0 + 0.6709184893619959 w_1 + 0.4501316193677827 w_2
   + 0.3020016260803017 w_3 + 0.2026184747546624 w_4
   + 0.1359404809992298 w_5 + 0.0912049821551464 w_6
   + 0.0611911088498186 w_7 + 0.0410542463119058 w_8
   + 0.0275440529174791 w_9 + 0.018479814374302 w_10
   + 0.0123984491436968 w_11 + 0.00831834876992057 w_12
   + 0.00558093399070132 w_13 + 0.00374435180227035 w_14 + z_71
   >= 0.7137041699874268
 R144: - w_0 - 5.737885291205552 w_1 - 32.92332761503302 w_2
   - 188.9102772598396 w_3 - 1083.945501246796 w_4 - 6219.554948072422 w_5
   - 35687.09285438947 w_6 - 204768.4451750881 w_7
   - 1.1749378496731685e+06 w_8 - 6.7416586057203542e+06 w_9
   - 3.8682863752092153e+07 w_10 - 2.2195783494483802e+08 w_11
   - 1.2735685963978157e+09 w_12 - 7.3075905166123276e+09 w_13
   - 4.1930116139423058e+10 w_14 + z_72 >= 0.6031222604418215
 R145: w_0 + 5.737885291205552 w_1 + 32.92332761503302 w_2
   + 188.9102772598396 w_3 + 1083.945501246796 w_4 + 6219.554948072422 w_5
   + 35687.09285438947 w_6 + 204768.4451750881 w_7
   + 1.1749378496731685e+06 w_8 + 6.7416586057203542e+06 w_9
   + 3.8682863752092153e+07 w_10 + 2.2195783494483802e+08 w_11
   + 1.2735685963978157e+09 w_12 + 7.3075905166123276e+09 w_13
   + 4.1930116139423058e+10 w_14 + z_72 >= -0.6031222604418215
 R146: - w_0 - 2.292834603796026 w_1 - 5.25709052036448 w_2
   - 12.05363906037974 w_3 - 27.63700073930608 w_4 - 63.36707164021733 w_5
   - 145.2902145979121 w_6 - 333.1264316230435 w_7 - 763.8038098644048 w_8
   - 1751.275805768348 w_9 - 4015.385768256436 w_10
   - 9206.615437048447 w_11 - 21109.24645790735 w_12
   - 48400.01073874868 w_13 - 110973.2194459022 w_14 + z_73
   >= -0.6988158747741287
 R147: w_0 + 2.292834603796026 w_1 + 5.25709052036448 w_2
   + 12.05363906037974 w_3 + 27.63700073930608 w_4 + 63.36707164021733 w_5
   + 145.2902145979121 w_6 + 333.1264316230435 w_7 + 763.8038098644048 w_8
   + 1751.275805768348 w_9 + 4015.385768256436 w_10
   + 9206.615437048447 w_11 + 21109.24645790735 w_12
   + 48400.01073874868 w_13 + 110973.2194459022 w_14 + z_73
   >= 0.6988158747741287
 R148: - w_0 - 1.423693618919505 w_1 - 2.026903520552118 w_2
   - 2.88568960837553 w_3 - 4.108337881626569 w_4 - 5.849014426437024 w_5
   - 8.327204515886521 w_6 - 11.85538793270533 w_7 - 16.87844014960788 w_8
   - 24.02972753831152 w_9 - 34.21096976066843 w_10
   - 48.70593934531179 w_11 - 69.34233504940086 w_12
   - 98.72223993081036 w_13 - 140.5502230349351 w_14 + z_74
   >= -0.7685131836862392
 R149: w_0 + 1.423693618919505 w_1 + 2.026903520552118 w_2
   + 2.88568960837553 w_3 + 4.108337881626569 w_4 + 5.849014426437024 w_5
   + 8.327204515886521 w_6 + 11.85538793270533 w_7 + 16.87844014960788 w_8
   + 24.02972753831152 w_9 + 34.21096976066843 w_10
   + 48.70593934531179 w_11 + 69.34233504940086 w_12
   + 98.72223993081036 w_13 + 140.5502230349351 w_14 + z_74
   >= 0.7685131836862392
 R150: - w_0 - 5.481651059004119 w_1 - 30.04849833268098 w_2
   - 164.7153827068242 w_3 - 902.9122520491318 w_4 - 4949.449902632917 w_5
   - 27131.15730025556 w_6 - 148723.5371469533 w_7 - 815250.5349004348 w_8
   - 4.4689189579906426e+06 w_9 - 2.4497054338672992e+07 w_10
   - 1.3428430385806826e+08 w_11 - 7.3609969645121086e+08 w_12
   - 4.0350416805843906e+09 w_13 - 2.2118690501501186e+10 w_14 + z_75
   >= 0.7587370668641599
 R151: w_0 + 5.481651059004119 w_1 + 30.04849833268098 w_2
   + 164.7153827068242 w_3 + 902.9122520491318 w_4 + 4949.449902632917 w_5
   + 27131.15730025556 w_6 + 148723.5371469533 w_7 + 815250.5349004348 w_8
   + 4.4689189579906426e+06 w_9 + 2.4497054338672992e+07 w_10
   + 1.3428430385806826e+08 w_11 + 7.3609969645121086e+08 w_12
   + 4.0350416805843906e+09 w_13 + 2.2118690501501186e+10 w_14 + z_75
   >= -0.7587370668641599
 R152: - w_0 - 0.8567647922848695 w_1 - 0.7340459092989355 w_2
   - 0.6289046910080606 w_3 - 0.538823396958501 w_4
   - 0.4616449157733779 w_5 - 0.3955211103719442 w_6
   - 0.3388685619720997 w_7 - 0.2903306531098984 w_8
   - 0.2487450817056326 w_9 - 0.2131160282594092 w_10
   - 0.1825903096842491 w_11 - 0.1564369487498557 w_12
   - 0.1340296699013488 w_13 - 0.1148319022930388 w_14 + z_76
   >= -0.8270603717676618
 R153: w_0 + 0.8567647922848695 w_1 + 0.7340459092989355 w_2
   + 0.6289046910080606 w_3 + 0.538823396958501 w_4
   + 0.4616449157733779 w_5 + 0.3955211103719442 w_6
   + 0.3388685619720997 w_7 + 0.2903306531098984 w_8
   + 0.2487450817056326 w_9 + 0.2131160282594092 w_10
   + 0.1825903096842491 w_11 + 0.1564369487498557 w_12
   + 0.1340296699013488 w_13 + 0.1148319022930388 w_14 + z_76
   >= 0.8270603717676618
 R154: - w_0 - 1.485220349180958 w_1 - 2.205879485621206 w_2
   - 3.276217099885439 w_3 - 4.865904305084475 w_4 - 7.22694009107869 w_5
   - 10.73359848558175 w_6 - 15.94175889072393 w_7 - 23.67702470623964 w_8
   - 35.1655989017674 w_9 - 52.22866308004047 w_10 - 77.5710732169923 w_11
   - 115.2101364496829 w_12 - 171.1124390869839 w_13
   - 254.1396765299756 w_14 + z_77 >= -0.9016769639653965
 R155: w_0 + 1.485220349180958 w_1 + 2.205879485621206 w_2
   + 3.276217099885439 w_3 + 4.865904305084475 w_4 + 7.22694009107869 w_5
   + 10.73359848558175 w_6 + 15.94175889072393 w_7 + 23.67702470623964 w_8
   + 35.1655989017674 w_9 + 52.22866308004047 w_10 + 77.5710732169923 w_11
   + 115.2101364496829 w_12 + 171.1124390869839 w_13
   + 254.1396765299756 w_14 + z_77 >= 0.9016769639653965
 R156: - w_0 - 3.741003790303882 w_1 - 13.99510935906801 w_2
   - 52.35575715799078 w_3 - 195.8630859722731 w_4 - 732.7245470028889 w_5
   - 2741.125307586503 w_6 - 10254.560165379 w_7 - 38362.34844658206 w_8
   - 143513.6909436217 w_9 - 536885.2617805889 w_10
   - 2.0084897992794751e+06 w_11 - 7.5137679518912006e+06 w_12
   - 2.810903438748882e+07 w_13 - 1.0515600418537785e+08 w_14 + z_78
   >= 0.5290202127897595
 R157: w_0 + 3.741003790303882 w_1 + 13.99510935906801 w_2
   + 52.35575715799078 w_3 + 195.8630859722731 w_4 + 732.7245470028889 w_5
   + 2741.125307586503 w_6 + 10254.560165379 w_7 + 38362.34844658206 w_8
   + 143513.6909436217 w_9 + 536885.2617805889 w_10
   + 2.0084897992794751e+06 w_11 + 7.5137679518912006e+06 w_12
   + 2.810903438748882e+07 w_13 + 1.0515600418537785e+08 w_14 + z_78
   >= -0.5290202127897595
 R158: - w_0 - 3.54323025174976 w_1 - 12.55448061691467 w_2
   - 44.48341551685804 w_3 - 157.6149835604861 w_4 - 558.4661778805554 w_5
   - 1978.774256045447 w_6 - 7011.252805403852 w_7 - 24842.4830427723 w_8
   - 88022.63744573125 w_9 - 311884.4718365162 w_10
   - 1.1050784956621402e+06 w_11 - 3.9155475563882114e+06 w_12
   - 1.387368655395956e+07 w_13 - 4.9157665901283391e+07 w_14 + z_79
   >= 0.3120690993549326
 R159: w_0 + 3.54323025174976 w_1 + 12.55448061691467 w_2
   + 44.48341551685804 w_3 + 157.6149835604861 w_4 + 558.4661778805554 w_5
   + 1978.774256045447 w_6 + 7011.252805403852 w_7 + 24842.4830427723 w_8
   + 88022.63744573125 w_9 + 311884.4718365162 w_10
   + 1.1050784956621402e+06 w_11 + 3.9155475563882114e+06 w_12
   + 1.387368655395956e+07 w_13 + 4.9157665901283391e+07 w_14 + z_79
   >= -0.3120690993549326
 R160: - w_0 - 6.025164618541647 w_1 - 36.30260868052611 w_2
   - 218.7291933826688 w_3 - 1317.87939701141 w_4 - 7940.440314378149 w_5
   - 47842.46003783294 w_6 - 288258.6974839437 w_7
   - 1.7368061050671579e+06 w_8 - 1.0464542693517767e+07 w_9
   - 6.3050592386201754e+07 w_10 - 3.798901984234342e+08 w_11
   - 2.2889009824716415e+09 w_12 - 1.3791005214933352e+10 w_13
   - 8.3093076675139771e+10 w_14 + z_80 >= 0.2191640841385587
 R161: w_0 + 6.025164618541647 w_1 + 36.30260868052611 w_2
   + 218.7291933826688 w_3 + 1317.87939701141 w_4 + 7940.440314378149 w_5
   + 47842.46003783294 w_6 + 288258.6974839437 w_7
   + 1.7368061050671579e+06 w_8 + 1.0464542693517767e+07 w_9
   + 6.3050592386201754e+07 w_10 + 3.798901984234342e+08 w_11
   + 2.2889009824716415e+09 w_12 + 1.3791005214933352e+10 w_13
   + 8.3093076675139771e+10 w_14 + z_80 >= -0.2191640841385587
 R162: - w_0 - 2.847786719146395 w_1 - 8.109889197746591 w_2
   - 23.09523475109156 w_3 - 65.77030279972685 w_4 - 187.2997948272991 w_5
   - 533.3898682080271 w_6 - 1518.980582810066 w_7 - 4325.732730367758 w_8
   - 12318.76422011818 w_9 - 35081.21314234834 w_10
   - 99903.81287832359 w_11 - 284504.7515069766 w_12
   - 810208.8528756133 w_13 - 2.3073020109540075e+06 w_14 + z_81
   >= -0.2457770149145036
 R163: w_0 + 2.847786719146395 w_1 + 8.109889197746591 w_2
   + 23.09523475109156 w_3 + 65.77030279972685 w_4 + 187.2997948272991 w_5
   + 533.3898682080271 w_6 + 1518.980582810066 w_7 + 4325.732730367758 w_8
   + 12318.76422011818 w_9 + 35081.21314234834 w_10
   + 99903.81287832359 w_11 + 284504.7515069766 w_12
   + 810208.8528756133 w_13 + 2.3073020109540075e+06 w_14 + z_81
   >= 0.2457770149145036
 R164: - w_0 - 0.8102674794340547 w_1 - 0.6565333882284163 w_2
   - 0.5319676536441386 w_3 - 0.4310360898586845 w_4
   - 0.349254526074907 w_5 - 0.2829895845236503 w_6
   - 0.2292972573580685 w_7 - 0.1857921107606639 w_8
   - 0.1505413052847759 w_9 - 0.1219787239838079 w_10
   - 0.0988353932269423 w_11 - 0.0800831049488682 w_12
   - 0.0648887355921723 w_13 - 0.0525772322319323 w_14 + z_82
   >= -0.7473050955545837
 R165: w_0 + 0.8102674794340547 w_1 + 0.6565333882284163 w_2
   + 0.5319676536441386 w_3 + 0.4310360898586845 w_4
   + 0.349254526074907 w_5 + 0.2829895845236503 w_6
   + 0.2292972573580685 w_7 + 0.1857921107606639 w_8
   + 0.1505413052847759 w_9 + 0.1219787239838079 w_10
   + 0.0988353932269423 w_11 + 0.0800831049488682 w_12
   + 0.0648887355921723 w_13 + 0.0525772322319323 w_14 + z_82
   >= 0.7473050955545837
 R166: - w_0 - 4.778787651780577 w_1 - 22.83681142081053 w_2
   - 109.132272423811 w_3 - 521.519955869662 w_4 - 2492.233125267092 w_5
   - 11909.8528843849 w_6 - 56914.65789842185 w_7 - 271983.0643702942 w_8
   - 1.299749309506204e+06 w_9 - 6.2112259506785795e+06 w_10
   - 2.9682129875521876e+07 w_11 - 1.4184459572769129e+08 w_12
   - 6.7784520253529918e+08 w_13 - 3.2392782836943927e+09 w_14 + z_83
   >= 1.06533392375182
 R167: w_0 + 4.778787651780577 w_1 + 22.83681142081053 w_2
   + 109.132272423811 w_3 + 521.519955869662 w_4 + 2492.233125267092 w_5
   + 11909.8528843849 w_6 + 56914.65789842185 w_7 + 271983.0643702942 w_8
   + 1.299749309506204e+06 w_9 + 6.2112259506785795e+06 w_10
   + 2.9682129875521876e+07 w_11 + 1.4184459572769129e+08 w_12
   + 6.7784520253529918e+08 w_13 + 3.2392782836943927e+09 w_14 + z_83
   >= -1.06533392375182
 R168: - w_0 - 1.266904258183754 w_1 - 1.605046399404128 w_2
   - 2.033440117987592 w_3 - 2.576173944240155 w_4 - 3.26376573977989 w_5
   - 4.134878713441392 w_6 - 5.238495449132262 w_7 - 6.636672190981879 w_8
   - 8.408028258924647 w_9 - 10.65216680416097 w_10
   - 13.49527548307516 w_11 - 17.09722197487074 w_12
   - 21.66054332307659 w_13 - 27.44183457057941 w_14 + z_84
   >= -0.9122530391042438
 R169: w_0 + 1.266904258183754 w_1 + 1.605046399404128 w_2
   + 2.033440117987592 w_3 + 2.576173944240155 w_4 + 3.26376573977989 w_5
   + 4.134878713441392 w_6 + 5.238495449132262 w_7 + 6.636672190981879 w_8
   + 8.408028258924647 w_9 + 10.65216680416097 w_10
   + 13.49527548307516 w_11 + 17.09722197487074 w_12
   + 21.66054332307659 w_13 + 27.44183457057941 w_14 + z_84
   >= 0.9122530391042438
 R170: - w_0 - 1.104143294573741 w_1 - 1.219132414952156 w_2
   - 1.346096881166915 w_3 - 1.486283845187075 w_4 - 1.641070341496585 w_5
   - 1.811976813487294 w_6 - 2.000682048535091 w_7 - 2.209039668464077 w_8
   - 2.439096337382011 w_9 - 2.693111865739719 w_10
   - 2.973581408093489 w_11 - 3.283259972615569 w_12
   - 3.625189483105846 w_13 - 4.002728659330567 w_14 + z_85
   >= -1.131753667464342
 R171: w_0 + 1.104143294573741 w_1 + 1.219132414952156 w_2
   + 1.346096881166915 w_3 + 1.486283845187075 w_4 + 1.641070341496585 w_5
   + 1.811976813487294 w_6 + 2.000682048535091 w_7 + 2.209039668464077 w_8
   + 2.439096337382011 w_9 + 2.693111865739719 w_10
   + 2.973581408093489 w_11 + 3.283259972615569 w_12
   + 3.625189483105846 w_13 + 4.002728659330567 w_14 + z_85
   >= 1.131753667464342
 R172: - w_0 - 2.746493474591117 w_1 - 7.543226405971585 w_2
   - 20.71742210136436 w_3 - 56.900264611747 w_4 - 156.276205458671 w_5
   - 429.2115785261004 w_6 - 1178.826799640888 w_7 - 3237.640112886827 w_8
   - 8892.157443118118 w_9 - 24422.25239256074 w_10
   - 67075.55683098536 w_11 - 184222.5791408669 w_12
   - 505966.1114827365 w_13 - 1.3896326235515773e+06 w_14 + z_86
   >= -0.3340654055113018
 R173: w_0 + 2.746493474591117 w_1 + 7.543226405971585 w_2
   + 20.71742210136436 w_3 + 56.900264611747 w_4 + 156.276205458671 w_5
   + 429.2115785261004 w_6 + 1178.826799640888 w_7 + 3237.640112886827 w_8
   + 8892.157443118118 w_9 + 24422.25239256074 w_10
   + 67075.55683098536 w_11 + 184222.5791408669 w_12
   + 505966.1114827365 w_13 + 1.3896326235515773e+06 w_14 + z_86
   >= 0.3340654055113018
 R174: - w_0 - 2.137921677062506 w_1 - 4.570709097253758 w_2
   - 9.771818058565607 w_3 - 20.89138165171827 w_4 - 44.66413769699438 w_5
   - 95.48842816970892 w_6 - 204.1467804926467 w_7 - 436.4498273177506 w_8
   - 933.0955467728065 w_9 - 1994.885196216075 w_10
   - 4264.908304241437 w_11 - 9118.039914321662 w_12
   - 19493.65518514943 w_13 - 41675.90798551289 w_14 + z_87
   >= -0.7748251038016204
 R175: w_0 + 2.137921677062506 w_1 + 4.570709097253758 w_2
   + 9.771818058565607 w_3 + 20.89138165171827 w_4 + 44.66413769699438 w_5
   + 95.48842816970892 w_6 + 204.1467804926467 w_7 + 436.4498273177506 w_8
   + 933.0955467728065 w_9 + 1994.885196216075 w_10
   + 4264.908304241437 w_11 + 9118.039914321662 w_12
   + 19493.65518514943 w_13 + 41675.90798551289 w_14 + z_87
   >= 0.7748251038016204
 R176: - w_0 - 6.077430520031551 w_1 - 36.93516172581096 w_2
   - 224.4708791347448 w_3 - 1364.206171711811 w_4 - 8290.868223576765 w_5
   - 50387.1755795252 w_6 - 306224.5586851949 w_7
   - 1.8610584789365961e+06 w_8 - 1.1310453599452764e+07 w_9
   - 6.8738495900714934e+07 w_10 - 4.1775343288806862e+08 w_11
   - 2.5388674628819003e+09 w_12 - 1.5429790605233532e+10 w_13
   - 9.3773480341942352e+10 w_14 + z_88 >= 0.1888157248761905
 R177: w_0 + 6.077430520031551 w_1 + 36.93516172581096 w_2
   + 224.4708791347448 w_3 + 1364.206171711811 w_4 + 8290.868223576765 w_5
   + 50387.1755795252 w_6 + 306224.5586851949 w_7
   + 1.8610584789365961e+06 w_8 + 1.1310453599452764e+07 w_9
   + 6.8738495900714934e+07 w_10 + 4.1775343288806862e+08 w_11
   + 2.5388674628819003e+09 w_12 + 1.5429790605233532e+10 w_13
   + 9.3773480341942352e+10 w_14 + z_88 >= -0.1888157248761905
 R178: - w_0 - 0.8986593461001643 w_1 - 0.8075886203331749 w_2
   - 0.7257470614665448 w_3 - 0.6521993796916409 w_4
   - 0.5861050680806228 w_5 - 0.5267087972273247 w_6
   - 0.4733317833015117 w_7 - 0.4253640308701611 w_8
   - 0.3822573618363091 w_9 - 0.3435191508297915 w_10
   - 0.3087066954575841 w_11 - 0.2774221570766551 w_12
   - 0.2493080142722039 w_13 - 0.2240429770833892 w_14 + z_89
   >= -0.8102764577329729
 R179: w_0 + 0.8986593461001643 w_1 + 0.8075886203331749 w_2
   + 0.7257470614665448 w_3 + 0.6521993796916409 w_4
   + 0.5861050680806228 w_5 + 0.5267087972273247 w_6
   + 0.4733317833015117 w_7 + 0.4253640308701611 w_8
   + 0.3822573618363091 w_9 + 0.3435191508297915 w_10
   + 0.3087066954575841 w_11 + 0.2774221570766551 w_12
   + 0.2493080142722039 w_13 + 0.2240429770833892 w_14 + z_89
   >= 0.8102764577329729
 R180: - w_0 - 5.306517764380549 w_1 - 28.15913078368634 w_2
   - 149.4269277331468 w_3 - 792.9366464927519 w_4 - 4207.732400642128 w_5
   - 22328.40673176707 w_6 - 118486.0869724362 w_7 - 628748.5253511714 w_8
   - 3.3364652191040656e+06 w_9 - 1.7705011955413565e+07 w_10
   - 9.3951960459972098e+07 w_11 - 4.9855774717922091e+08 w_12
   - 2.6456055419760823e+09 w_13 - 1.4038952806039713e+10 w_14 + z_90
   >= 0.7531660077977831
 R181: w_0 + 5.306517764380549 w_1 + 28.15913078368634 w_2
   + 149.4269277331468 w_3 + 792.9366464927519 w_4 + 4207.732400642128 w_5
   + 22328.40673176707 w_6 + 118486.0869724362 w_7 + 628748.5253511714 w_8
   + 3.3364652191040656e+06 w_9 + 1.7705011955413565e+07 w_10
   + 9.3951960459972098e+07 w_11 + 4.9855774717922091e+08 w_12
   + 2.6456055419760823e+09 w_13 + 1.4038952806039713e+10 w_14 + z_90
   >= -0.7531660077977831
 R182: - w_0 - 4.206002823262303 w_1 - 17.69045974929046 w_2
   - 74.40612365032381 w_3 - 312.9523661412659 w_4 - 1316.278535536782 w_5
   - 5536.271236667275 w_6 - 23285.57245176844 w_7 - 97939.18347341694 w_8
   - 411932.4821971963 w_9 - 1.7325891831148558e+06 w_10
   - 7.2872749957348099e+06 w_11 - 3.0650299205949396e+07 w_12
   - 1.2891524499405748e+08 w_13 - 5.4221788440655708e+08 w_14 + z_91
   >= 0.9504914786002121
 R183: w_0 + 4.206002823262303 w_1 + 17.69045974929046 w_2
   + 74.40612365032381 w_3 + 312.9523661412659 w_4 + 1316.278535536782 w_5
   + 5536.271236667275 w_6 + 23285.57245176844 w_7 + 97939.18347341694 w_8
   + 411932.4821971963 w_9 + 1.7325891831148558e+06 w_10
   + 7.2872749957348099e+06 w_11 + 3.0650299205949396e+07 w_12
   + 1.2891524499405748e+08 w_13 + 5.4221788440655708e+08 w_14 + z_91
   >= -0.9504914786002121
 R184: - w_0 - 0.6867829924480163 w_1 - 0.4716708787158521 w_2
   - 0.3239355375350583 w_3 - 0.222473417828584 w_4
   - 0.1527909596364528 w_5 - 0.1049342324781271 w_6
   - 0.072067046191564 w_7 - 0.0494944216403317 w_8
   - 0.0339919270036309 w_9 - 0.0233450773466281 w_10
   - 0.0160330020790477 w_11 - 0.0110111931457736 w_12
   - 0.0075623001790775 w_13 - 0.00519365914677702 w_14 + z_92
   >= -0.5285870707269404
 R185: w_0 + 0.6867829924480163 w_1 + 0.4716708787158521 w_2
   + 0.3239355375350583 w_3 + 0.222473417828584 w_4
   + 0.1527909596364528 w_5 + 0.1049342324781271 w_6
   + 0.072067046191564 w_7 + 0.0494944216403317 w_8
   + 0.0339919270036309 w_9 + 0.0233450773466281 w_10
   + 0.0160330020790477 w_11 + 0.0110111931457736 w_12
   + 0.0075623001790775 w_13 + 0.00519365914677702 w_14 + z_92
   >= 0.5285870707269404
 R186: - w_0 - 0.5545133460185198 w_1 - 0.3074850509126546 w_2
   - 0.170504564432251 w_3 - 0.0945470565347578 w_4
   - 0.0524276046752907 w_5 - 0.0290718064922316 w_6
   - 0.0161207046928103 w_7 - 0.00893914589938669 w_8
   - 0.00495687570321664 w_9 - 0.00274865373198856 w_10
   - 0.00152416517797127 w_11 - 0.00084517 w_12 - 0.000468658 w_13
   - 2.5987711979279579e-04 w_14 + z_93 >= -0.4287597298657667
 R187: w_0 + 0.5545133460185198 w_1 + 0.3074850509126546 w_2
   + 0.170504564432251 w_3 + 0.0945470565347578 w_4
   + 0.0524276046752907 w_5 + 0.0290718064922316 w_6
   + 0.0161207046928103 w_7 + 0.00893914589938669 w_8
   + 0.00495687570321664 w_9 + 0.00274865373198856 w_10
   + 0.00152416517797127 w_11 + 0.00084517 w_12 + 0.000468658 w_13
   + 2.5987711979279579e-04 w_14 + z_93 >= 0.4287597298657667
 R188: - w_0 - 6.07246009770089 w_1 - 36.8747716381695 w_2
   - 223.9205793846167 w_3 - 1359.74878336715 w_4 - 8257.020229894346 w_5
   - 50140.42587194245 w_6 - 304475.7353890999 w_7
   - 1.8489167538684434e+06 w_8 - 1.1227473211836779e+07 w_9
   - 6.8178383076884493e+07 w_10 - 4.1401051076014668e+08 w_11
   - 2.5140623066197553e+09 w_12 - 1.5266543040082323e+10 w_13
   - 9.2705473440733139e+10 w_14 + z_94 >= 0.1344319627017333
 R189: w_0 + 6.07246009770089 w_1 + 36.8747716381695 w_2
   + 223.9205793846167 w_3 + 1359.74878336715 w_4 + 8257.020229894346 w_5
   + 50140.42587194245 w_6 + 304475.7353890999 w_7
   + 1.8489167538684434e+06 w_8 + 1.1227473211836779e+07 w_9
   + 6.8178383076884493e+07 w_10 + 4.1401051076014668e+08 w_11
   + 2.5140623066197553e+09 w_12 + 1.5266543040082323e+10 w_13
   + 9.2705473440733139e+10 w_14 + z_94 >= -0.1344319627017333
 R190: - w_0 - 1.220807104312305 w_1 - 1.490369985939396 w_2
   - 1.819454266888645 w_3 - 2.221202694988994 w_4 - 2.711660030160203 w_5
   - 3.310413829299296 w_6 - 4.041376721022282 w_7 - 4.933741412226372 w_8
   - 6.023146566885781 w_9 - 7.353100119168432 w_10 - 8.97671686420048 w_11
   - 10.95883972121602 w_12 - 13.37862938668041 w_13
   - 16.33272580122082 w_14 + z_95 >= -1.046944561796341
 R191: w_0 + 1.220807104312305 w_1 + 1.490369985939396 w_2
   + 1.819454266888645 w_3 + 2.221202694988994 w_4 + 2.711660030160203 w_5
   + 3.310413829299296 w_6 + 4.041376721022282 w_7 + 4.933741412226372 w_8
   + 6.023146566885781 w_9 + 7.353100119168432 w_10 + 8.97671686420048 w_11
   + 10.95883972121602 w_12 + 13.37862938668041 w_13
   + 16.33272580122082 w_14 + z_95 >= 1.046944561796341
 R192: - w_0 - 0.5145932537643926 w_1 - 0.2648062168198245 w_2
   - 0.1362674927303527 w_3 - 0.0701223324664279 w_4
   - 0.0360844792254476 w_5 - 0.0185688295750167 w_6
   - 0.00955539442960434 w_7 - 0.00491714151053225 w_8
   - 0.00253032784912475 w_9 - 0.00130208964097176 w_10
   - 6.700465450405692e-04 w_11 - 3.4480143178601612e-04 w_12
   - 1.7743249068538731e-04 w_13 - 9.13056e-05 w_14 + z_96
   >= -0.4164331094831684
 R193: w_0 + 0.5145932537643926 w_1 + 0.2648062168198245 w_2
   + 0.1362674927303527 w_3 + 0.0701223324664279 w_4
   + 0.0360844792254476 w_5 + 0.0185688295750167 w_6
   + 0.00955539442960434 w_7 + 0.00491714151053225 w_8
   + 0.00253032784912475 w_9 + 0.00130208964097176 w_10
   + 6.700465450405692e-04 w_11 + 3.4480143178601612e-04 w_12
   + 1.7743249068538731e-04 w_13 + 9.13056e-05 w_14 + z_96
   >= 0.4164331094831684
 R194: - w_0 - 1.692593959361489 w_1 - 2.864874311267002 w_2
   - 4.849068953580435 w_3 - 8.207504819357581 w_4 - 13.89197307867495 w_5
   - 23.51346971657765 w_6 - 39.79875680590865 w_7 - 67.36313535977793 w_8
   - 114.0184359936105 w_9 - 192.9869160186296 w_10
   - 326.6484882889355 w_11 - 552.8832581124144 w_12
   - 935.8068629131717 w_13 - 1583.94104329586 w_14 + z_97
   >= -0.9415092098674761
 R195: w_0 + 1.692593959361489 w_1 + 2.864874311267002 w_2
   + 4.849068953580435 w_3 + 8.207504819357581 w_4 + 13.89197307867495 w_5
   + 23.51346971657765 w_6 + 39.79875680590865 w_7 + 67.36313535977793 w_8
   + 114.0184359936105 w_9 + 192.9869160186296 w_10
   + 326.6484882889355 w_11 + 552.8832581124144 w_12
   + 935.8068629131717 w_13 + 1583.94104329586 w_14 + z_97
   >= 0.9415092098674761
 R196: - w_0 - 4.084890518529173 w_1 - 16.68633054836954 w_2
   - 68.16183344607842 w_3 - 278.4336271694504 w_4 - 1137.370883664175 w_5
   - 4646.035538730935 w_6 - 18978.54652091157 w_7 - 77525.2847387365 w_8
   - 316682.3005755391 w_9 - 1.2936125270070254e+06 w_10
   - 5.2842655462215627e+06 w_11 - 2.1585646227150843e+07 w_12
   - 8.8175001609613493e+07 w_13 - 3.6018522804640472e+08 w_14 + z_98
   >= 0.8120633212605567
 R197: w_0 + 4.084890518529173 w_1 + 16.68633054836954 w_2
   + 68.16183344607842 w_3 + 278.4336271694504 w_4 + 1137.370883664175 w_5
   + 4646.035538730935 w_6 + 18978.54652091157 w_7 + 77525.2847387365 w_8
   + 316682.3005755391 w_9 + 1.2936125270070254e+06 w_10
   + 5.2842655462215627e+06 w_11 + 2.1585646227150843e+07 w_12
   + 8.8175001609613493e+07 w_13 + 3.6018522804640472e+08 w_14 + z_98
   >= -0.8120633212605567
 R198: - w_0 - 3.435502754249699 w_1 - 11.80267917445727 w_2
   - 40.5481368113735 w_3 - 139.3032356951672 w_4 - 478.576649906642 w_5
   - 1644.151398873862 w_6 - 5648.48665923465 w_7 - 19405.39147514332 w_8
   - 66667.2758601485 w_9 - 229035.6098358646 w_10 - 786852.4684123723 w_11
   - 2.7032338224188793e+06 w_12 - 9.2869672423010003e+06 w_13
   - 3.1905401539551817e+07 w_14 + z_99 >= 0.385600839684748
 R199: w_0 + 3.435502754249699 w_1 + 11.80267917445727 w_2
   + 40.5481368113735 w_3 + 139.3032356951672 w_4 + 478.576649906642 w_5
   + 1644.151398873862 w_6 + 5648.48665923465 w_7 + 19405.39147514332 w_8
   + 66667.2758601485 w_9 + 229035.6098358646 w_10 + 786852.4684123723 w_11
   + 2.7032338224188793e+06 w_12 + 9.2869672423010003e+06 w_13
   + 3.1905401539551817e+07 w_14 + z_99 >= -0.385600839684748
Bounds
 w_0 free
 w_1 free
 w_2 free
 w_3 free
 w_4 free
 w_5 free
 w_6 free
 w_7 free
 w_8 free
 w_9 free
 w_10 free
 w_11 free
 w_12 free
 w_13 free
 w_14 free
End
