\ LP format - for model browsing. Use MPS format to capture full model detail.
\ Signature: 0x653149c26001d1a6
Minimize
  z_1 + z_2 + z_3 + z_4 + z_5 + z_6 + z_7 + z_8 + z_9 + z_10 + z_11 + z_12
   + z_13 + z_14 + z_15 + z_16 + z_17 + z_18 + z_19 + z_20 + z_21 + z_22
   + z_23 + z_24 + z_25 + z_26 + z_27 + z_28 + z_29 + z_30 + z_31 + z_32
   + z_33 + z_34 + z_35 + z_36 + z_37 + z_38 + z_39 + z_40
Subject To
 sign_pos_0: bias - 0.9772807208969545 w_1 - 1.098699864165183 w_2 - 2 c_1
   >= -1.9
 sign_neg_0: bias - 0.9772807208969545 w_1 - 1.098699864165183 w_2 - 2 c_1
   <= -0.1
 abs_0_1: 2 c_1 + z_1 >= 0
 abs_0_2: - 2 c_1 + z_1 >= 0
 sign_pos_1: bias - 1.108543980092237 w_1 + 1.038218108493255 w_2 - 2 c_2
   >= -1.9
 sign_neg_1: bias - 1.108543980092237 w_1 + 1.038218108493255 w_2 - 2 c_2
   <= -0.1
 abs_1_1: 2 c_2 + z_2 >= 0
 abs_1_2: - 2 c_2 + z_2 >= 0
 sign_pos_2: bias + 0.8890511152316476 w_1 - 1.012141632236233 w_2 - 2 c_3
   >= -1.9
 sign_neg_2: bias + 0.8890511152316476 w_1 - 1.012141632236233 w_2 - 2 c_3
   <= -0.1
 abs_2_1: 2 c_3 + z_3 >= 0
 abs_2_2: - 2 c_3 + z_3 >= 0
 sign_pos_3: bias + 0.9371224504064189 w_1 + 0.8758203648623022 w_2 - 2 c_4
   >= -1.9
 sign_neg_3: bias + 0.9371224504064189 w_1 + 0.8758203648623022 w_2 - 2 c_4
   <= -0.1
 abs_3_1: 2 c_4 + z_4 >= 2
 abs_3_2: - 2 c_4 + z_4 >= -2
 sign_pos_4: bias - 0.9772807208969545 w_1 - 1.098699864165183 w_2 - 2 c_5
   >= -1.9
 sign_neg_4: bias - 0.9772807208969545 w_1 - 1.098699864165183 w_2 - 2 c_5
   <= -0.1
 abs_4_1: 2 c_5 + z_5 >= 0
 abs_4_2: - 2 c_5 + z_5 >= 0
 sign_pos_5: bias - 1.108543980092237 w_1 + 1.038218108493255 w_2 - 2 c_6
   >= -1.9
 sign_neg_5: bias - 1.108543980092237 w_1 + 1.038218108493255 w_2 - 2 c_6
   <= -0.1
 abs_5_1: 2 c_6 + z_6 >= 0
 abs_5_2: - 2 c_6 + z_6 >= 0
 sign_pos_6: bias + 0.8890511152316476 w_1 - 1.012141632236233 w_2 - 2 c_7
   >= -1.9
 sign_neg_6: bias + 0.8890511152316476 w_1 - 1.012141632236233 w_2 - 2 c_7
   <= -0.1
 abs_6_1: 2 c_7 + z_7 >= 0
 abs_6_2: - 2 c_7 + z_7 >= 0
 sign_pos_7: bias + 0.9371224504064189 w_1 + 0.8758203648623022 w_2 - 2 c_8
   >= -1.9
 sign_neg_7: bias + 0.9371224504064189 w_1 + 0.8758203648623022 w_2 - 2 c_8
   <= -0.1
 abs_7_1: 2 c_8 + z_8 >= 2
 abs_7_2: - 2 c_8 + z_8 >= -2
 sign_pos_8: bias - 0.9772807208969545 w_1 - 1.098699864165183 w_2 - 2 c_9
   >= -1.9
 sign_neg_8: bias - 0.9772807208969545 w_1 - 1.098699864165183 w_2 - 2 c_9
   <= -0.1
 abs_8_1: 2 c_9 + z_9 >= 0
 abs_8_2: - 2 c_9 + z_9 >= 0
 sign_pos_9: bias - 1.108543980092237 w_1 + 1.038218108493255 w_2 - 2 c_10
   >= -1.9
 sign_neg_9: bias - 1.108543980092237 w_1 + 1.038218108493255 w_2 - 2 c_10
   <= -0.1
 abs_9_1: 2 c_10 + z_10 >= 0
 abs_9_2: - 2 c_10 + z_10 >= 0
 sign_pos_10: bias + 0.8890511152316476 w_1 - 1.012141632236233 w_2
   - 2 c_11 >= -1.9
 sign_neg_10: bias + 0.8890511152316476 w_1 - 1.012141632236233 w_2
   - 2 c_11 <= -0.1
 abs_10_1: 2 c_11 + z_11 >= 0
 abs_10_2: - 2 c_11 + z_11 >= 0
 sign_pos_11: bias + 0.9371224504064189 w_1 + 0.8758203648623022 w_2
   - 2 c_12 >= -1.9
 sign_neg_11: bias + 0.9371224504064189 w_1 + 0.8758203648623022 w_2
   - 2 c_12 <= -0.1
 abs_11_1: 2 c_12 + z_12 >= 2
 abs_11_2: - 2 c_12 + z_12 >= -2
 sign_pos_12: bias - 0.9772807208969545 w_1 - 1.098699864165183 w_2
   - 2 c_13 >= -1.9
 sign_neg_12: bias - 0.9772807208969545 w_1 - 1.098699864165183 w_2
   - 2 c_13 <= -0.1
 abs_12_1: 2 c_13 + z_13 >= 0
 abs_12_2: - 2 c_13 + z_13 >= 0
 sign_pos_13: bias - 1.108543980092237 w_1 + 1.038218108493255 w_2 - 2 c_14
   >= -1.9
 sign_neg_13: bias - 1.108543980092237 w_1 + 1.038218108493255 w_2 - 2 c_14
   <= -0.1
 abs_13_1: 2 c_14 + z_14 >= 0
 abs_13_2: - 2 c_14 + z_14 >= 0
 sign_pos_14: bias + 0.8890511152316476 w_1 - 1.012141632236233 w_2
   - 2 c_15 >= -1.9
 sign_neg_14: bias + 0.8890511152316476 w_1 - 1.012141632236233 w_2
   - 2 c_15 <= -0.1
 abs_14_1: 2 c_15 + z_15 >= 0
 abs_14_2: - 2 c_15 + z_15 >= 0
 sign_pos_15: bias + 0.9371224504064189 w_1 + 0.8758203648623022 w_2
   - 2 c_16 >= -1.9
 sign_neg_15: bias + 0.9371224504064189 w_1 + 0.8758203648623022 w_2
   - 2 c_16 <= -0.1
 abs_15_1: 2 c_16 + z_16 >= 2
 abs_15_2: - 2 c_16 + z_16 >= -2
 sign_pos_16: bias - 0.9772807208969545 w_1 - 1.098699864165183 w_2
   - 2 c_17 >= -1.9
 sign_neg_16: bias - 0.9772807208969545 w_1 - 1.098699864165183 w_2
   - 2 c_17 <= -0.1
 abs_16_1: 2 c_17 + z_17 >= 0
 abs_16_2: - 2 c_17 + z_17 >= 0
 sign_pos_17: bias - 1.108543980092237 w_1 + 1.038218108493255 w_2 - 2 c_18
   >= -1.9
 sign_neg_17: bias - 1.108543980092237 w_1 + 1.038218108493255 w_2 - 2 c_18
   <= -0.1
 abs_17_1: 2 c_18 + z_18 >= 0
 abs_17_2: - 2 c_18 + z_18 >= 0
 sign_pos_18: bias + 0.8890511152316476 w_1 - 1.012141632236233 w_2
   - 2 c_19 >= -1.9
 sign_neg_18: bias + 0.8890511152316476 w_1 - 1.012141632236233 w_2
   - 2 c_19 <= -0.1
 abs_18_1: 2 c_19 + z_19 >= 0
 abs_18_2: - 2 c_19 + z_19 >= 0
 sign_pos_19: bias + 0.9371224504064189 w_1 + 0.8758203648623022 w_2
   - 2 c_20 >= -1.9
 sign_neg_19: bias + 0.9371224504064189 w_1 + 0.8758203648623022 w_2
   - 2 c_20 <= -0.1
 abs_19_1: 2 c_20 + z_20 >= 2
 abs_19_2: - 2 c_20 + z_20 >= -2
 sign_pos_20: bias - 0.9772807208969545 w_1 - 1.098699864165183 w_2
   - 2 c_21 >= -1.9
 sign_neg_20: bias - 0.9772807208969545 w_1 - 1.098699864165183 w_2
   - 2 c_21 <= -0.1
 abs_20_1: 2 c_21 + z_21 >= 0
 abs_20_2: - 2 c_21 + z_21 >= 0
 sign_pos_21: bias - 1.108543980092237 w_1 + 1.038218108493255 w_2 - 2 c_22
   >= -1.9
 sign_neg_21: bias - 1.108543980092237 w_1 + 1.038218108493255 w_2 - 2 c_22
   <= -0.1
 abs_21_1: 2 c_22 + z_22 >= 0
 abs_21_2: - 2 c_22 + z_22 >= 0
 sign_pos_22: bias + 0.8890511152316476 w_1 - 1.012141632236233 w_2
   - 2 c_23 >= -1.9
 sign_neg_22: bias + 0.8890511152316476 w_1 - 1.012141632236233 w_2
   - 2 c_23 <= -0.1
 abs_22_1: 2 c_23 + z_23 >= 0
 abs_22_2: - 2 c_23 + z_23 >= 0
 sign_pos_23: bias + 0.9371224504064189 w_1 + 0.8758203648623022 w_2
   - 2 c_24 >= -1.9
 sign_neg_23: bias + 0.9371224504064189 w_1 + 0.8758203648623022 w_2
   - 2 c_24 <= -0.1
 abs_23_1: 2 c_24 + z_24 >= 2
 abs_23_2: - 2 c_24 + z_24 >= -2
 sign_pos_24: bias - 0.9772807208969545 w_1 - 1.098699864165183 w_2
   - 2 c_25 >= -1.9
 sign_neg_24: bias - 0.9772807208969545 w_1 - 1.098699864165183 w_2
   - 2 c_25 <= -0.1
 abs_24_1: 2 c_25 + z_25 >= 0
 abs_24_2: - 2 c_25 + z_25 >= 0
 sign_pos_25: bias - 1.108543980092237 w_1 + 1.038218108493255 w_2 - 2 c_26
   >= -1.9
 sign_neg_25: bias - 1.108543980092237 w_1 + 1.038218108493255 w_2 - 2 c_26
   <= -0.1
 abs_25_1: 2 c_26 + z_26 >= 0
 abs_25_2: - 2 c_26 + z_26 >= 0
 sign_pos_26: bias + 0.8890511152316476 w_1 - 1.012141632236233 w_2
   - 2 c_27 >= -1.9
 sign_neg_26: bias + 0.8890511152316476 w_1 - 1.012141632236233 w_2
   - 2 c_27 <= -0.1
 abs_26_1: 2 c_27 + z_27 >= 0
 abs_26_2: - 2 c_27 + z_27 >= 0
 sign_pos_27: bias + 0.9371224504064189 w_1 + 0.8758203648623022 w_2
   - 2 c_28 >= -1.9
 sign_neg_27: bias + 0.9371224504064189 w_1 + 0.8758203648623022 w_2
   - 2 c_28 <= -0.1
 abs_27_1: 2 c_28 + z_28 >= 2
 abs_27_2: - 2 c_28 + z_28 >= -2
 sign_pos_28: bias - 0.9772807208969545 w_1 - 1.098699864165183 w_2
   - 2 c_29 >= -1.9
 sign_neg_28: bias - 0.9772807208969545 w_1 - 1.098699864165183 w_2
   - 2 c_29 <= -0.1
 abs_28_1: 2 c_29 + z_29 >= 0
 abs_28_2: - 2 c_29 + z_29 >= 0
 sign_pos_29: bias - 1.108543980092237 w_1 + 1.038218108493255 w_2 - 2 c_30
   >= -1.9
 sign_neg_29: bias - 1.108543980092237 w_1 + 1.038218108493255 w_2 - 2 c_30
   <= -0.1
 abs_29_1: 2 c_30 + z_30 >= 0
 abs_29_2: - 2 c_30 + z_30 >= 0
 sign_pos_30: bias + 0.8890511152316476 w_1 - 1.012141632236233 w_2
   - 2 c_31 >= -1.9
 sign_neg_30: bias + 0.8890511152316476 w_1 - 1.012141632236233 w_2
   - 2 c_31 <= -0.1
 abs_30_1: 2 c_31 + z_31 >= 0
 abs_30_2: - 2 c_31 + z_31 >= 0
 sign_pos_31: bias + 0.9371224504064189 w_1 + 0.8758203648623022 w_2
   - 2 c_32 >= -1.9
 sign_neg_31: bias + 0.9371224504064189 w_1 + 0.8758203648623022 w_2
   - 2 c_32 <= -0.1
 abs_31_1: 2 c_32 + z_32 >= 2
 abs_31_2: - 2 c_32 + z_32 >= -2
 sign_pos_32: bias - 0.9772807208969545 w_1 - 1.098699864165183 w_2
   - 2 c_33 >= -1.9
 sign_neg_32: bias - 0.9772807208969545 w_1 - 1.098699864165183 w_2
   - 2 c_33 <= -0.1
 abs_32_1: 2 c_33 + z_33 >= 0
 abs_32_2: - 2 c_33 + z_33 >= 0
 sign_pos_33: bias - 1.108543980092237 w_1 + 1.038218108493255 w_2 - 2 c_34
   >= -1.9
 sign_neg_33: bias - 1.108543980092237 w_1 + 1.038218108493255 w_2 - 2 c_34
   <= -0.1
 abs_33_1: 2 c_34 + z_34 >= 0
 abs_33_2: - 2 c_34 + z_34 >= 0
 sign_pos_34: bias + 0.8890511152316476 w_1 - 1.012141632236233 w_2
   - 2 c_35 >= -1.9
 sign_neg_34: bias + 0.8890511152316476 w_1 - 1.012141632236233 w_2
   - 2 c_35 <= -0.1
 abs_34_1: 2 c_35 + z_35 >= 0
 abs_34_2: - 2 c_35 + z_35 >= 0
 sign_pos_35: bias + 0.9371224504064189 w_1 + 0.8758203648623022 w_2
   - 2 c_36 >= -1.9
 sign_neg_35: bias + 0.9371224504064189 w_1 + 0.8758203648623022 w_2
   - 2 c_36 <= -0.1
 abs_35_1: 2 c_36 + z_36 >= 2
 abs_35_2: - 2 c_36 + z_36 >= -2
 sign_pos_36: bias - 0.9772807208969545 w_1 - 1.098699864165183 w_2
   - 2 c_37 >= -1.9
 sign_neg_36: bias - 0.9772807208969545 w_1 - 1.098699864165183 w_2
   - 2 c_37 <= -0.1
 abs_36_1: 2 c_37 + z_37 >= 0
 abs_36_2: - 2 c_37 + z_37 >= 0
 sign_pos_37: bias - 1.108543980092237 w_1 + 1.038218108493255 w_2 - 2 c_38
   >= -1.9
 sign_neg_37: bias - 1.108543980092237 w_1 + 1.038218108493255 w_2 - 2 c_38
   <= -0.1
 abs_37_1: 2 c_38 + z_38 >= 0
 abs_37_2: - 2 c_38 + z_38 >= 0
 sign_pos_38: bias + 0.8890511152316476 w_1 - 1.012141632236233 w_2
   - 2 c_39 >= -1.9
 sign_neg_38: bias + 0.8890511152316476 w_1 - 1.012141632236233 w_2
   - 2 c_39 <= -0.1
 abs_38_1: 2 c_39 + z_39 >= 0
 abs_38_2: - 2 c_39 + z_39 >= 0
 sign_pos_39: bias + 0.9371224504064189 w_1 + 0.8758203648623022 w_2
   - 2 c_40 >= -1.9
 sign_neg_39: bias + 0.9371224504064189 w_1 + 0.8758203648623022 w_2
   - 2 c_40 <= -0.1
 abs_39_1: 2 c_40 + z_40 >= 2
 abs_39_2: - 2 c_40 + z_40 >= -2
Bounds
 bias free
 w_1 free
 w_2 free
Binaries
 c_1 c_2 c_3 c_4 c_5 c_6 c_7 c_8 c_9 c_10 c_11 c_12 c_13 c_14 c_15 c_16
 c_17 c_18 c_19 c_20 c_21 c_22 c_23 c_24 c_25 c_26 c_27 c_28 c_29 c_30 c_31
 c_32 c_33 c_34 c_35 c_36 c_37 c_38 c_39 c_40
End
