\ LP format - for model browsing. Use MPS format to capture full model detail.
\ Signature: 0xfee404ee48cf70e8
Minimize
  0 w2_zero_2 + val_abs0 + val_abs1 + val_abs2 + val_abs3 + val_abs4
   + val_abs5 + val_abs6 + val_abs7 + val_abs8 + val_abs9 + val_abs10
   + val_abs11 + val_abs12 + val_abs13 + val_abs14 + val_abs15 + val_abs16
   + val_abs17 + val_abs18 + val_abs19 + val_abs20
Subject To
 R0: - W1_0_0 + abs_W1_0_0 >= 0
 R1: W1_0_0 + abs_W1_0_0 >= 0
 R2: - W1_0_1 + abs_W1_0_1 >= 0
 R3: W1_0_1 + abs_W1_0_1 >= 0
 R4: - W1_1_0 + abs_W1_1_0 >= 0
 R5: W1_1_0 + abs_W1_1_0 >= 0
 R6: - W1_1_1 + abs_W1_1_1 >= 0
 R7: W1_1_1 + abs_W1_1_1 >= 0
 R8: - W1_2_0 + abs_W1_2_0 >= 0
 R9: W1_2_0 + abs_W1_2_0 >= 0
 R10: - W1_2_1 + abs_W1_2_1 >= 0
 R11: W1_2_1 + abs_W1_2_1 >= 0
 R12: - W1_3_0 + abs_W1_3_0 >= 0
 R13: W1_3_0 + abs_W1_3_0 >= 0
 R14: - W1_3_1 + abs_W1_3_1 >= 0
 R15: W1_3_1 + abs_W1_3_1 >= 0
 R16: - W1_4_0 + abs_W1_4_0 >= 0
 R17: W1_4_0 + abs_W1_4_0 >= 0
 R18: - W1_4_1 + abs_W1_4_1 >= 0
 R19: W1_4_1 + abs_W1_4_1 >= 0
 R20: - W1_5_0 + abs_W1_5_0 >= 0
 R21: W1_5_0 + abs_W1_5_0 >= 0
 R22: - W1_5_1 + abs_W1_5_1 >= 0
 R23: W1_5_1 + abs_W1_5_1 >= 0
 R24: - W1_6_0 + abs_W1_6_0 >= 0
 R25: W1_6_0 + abs_W1_6_0 >= 0
 R26: - W1_6_1 + abs_W1_6_1 >= 0
 R27: W1_6_1 + abs_W1_6_1 >= 0
 R28: - W1_7_0 + abs_W1_7_0 >= 0
 R29: W1_7_0 + abs_W1_7_0 >= 0
 R30: - W1_7_1 + abs_W1_7_1 >= 0
 R31: W1_7_1 + abs_W1_7_1 >= 0
 R32: - W1_8_0 + abs_W1_8_0 >= 0
 R33: W1_8_0 + abs_W1_8_0 >= 0
 R34: - W1_8_1 + abs_W1_8_1 >= 0
 R35: W1_8_1 + abs_W1_8_1 >= 0
 R36: - W1_9_0 + abs_W1_9_0 >= 0
 R37: W1_9_0 + abs_W1_9_0 >= 0
 R38: - W1_9_1 + abs_W1_9_1 >= 0
 R39: W1_9_1 + abs_W1_9_1 >= 0
 R40: - W1_10_0 + abs_W1_10_0 >= 0
 R41: W1_10_0 + abs_W1_10_0 >= 0
 R42: - W1_10_1 + abs_W1_10_1 >= 0
 R43: W1_10_1 + abs_W1_10_1 >= 0
 R44: - W1_11_0 + abs_W1_11_0 >= 0
 R45: W1_11_0 + abs_W1_11_0 >= 0
 R46: - W1_11_1 + abs_W1_11_1 >= 0
 R47: W1_11_1 + abs_W1_11_1 >= 0
 R48: - W1_12_0 + abs_W1_12_0 >= 0
 R49: W1_12_0 + abs_W1_12_0 >= 0
 R50: - W1_12_1 + abs_W1_12_1 >= 0
 R51: W1_12_1 + abs_W1_12_1 >= 0
 R52: - W1_13_0 + abs_W1_13_0 >= 0
 R53: W1_13_0 + abs_W1_13_0 >= 0
 R54: - W1_13_1 + abs_W1_13_1 >= 0
 R55: W1_13_1 + abs_W1_13_1 >= 0
 R56: - W1_14_0 + abs_W1_14_0 >= 0
 R57: W1_14_0 + abs_W1_14_0 >= 0
 R58: - W1_14_1 + abs_W1_14_1 >= 0
 R59: W1_14_1 + abs_W1_14_1 >= 0
 R60: - W1_15_0 + abs_W1_15_0 >= 0
 R61: W1_15_0 + abs_W1_15_0 >= 0
 R62: - W1_15_1 + abs_W1_15_1 >= 0
 R63: W1_15_1 + abs_W1_15_1 >= 0
 R64: - W1_16_0 + abs_W1_16_0 >= 0
 R65: W1_16_0 + abs_W1_16_0 >= 0
 R66: - W1_16_1 + abs_W1_16_1 >= 0
 R67: W1_16_1 + abs_W1_16_1 >= 0
 R68: - W1_17_0 + abs_W1_17_0 >= 0
 R69: W1_17_0 + abs_W1_17_0 >= 0
 R70: - W1_17_1 + abs_W1_17_1 >= 0
 R71: W1_17_1 + abs_W1_17_1 >= 0
 R72: - W1_18_0 + abs_W1_18_0 >= 0
 R73: W1_18_0 + abs_W1_18_0 >= 0
 R74: - W1_18_1 + abs_W1_18_1 >= 0
 R75: W1_18_1 + abs_W1_18_1 >= 0
 R76: - W1_19_0 + abs_W1_19_0 >= 0
 R77: W1_19_0 + abs_W1_19_0 >= 0
 R78: - W1_19_1 + abs_W1_19_1 >= 0
 R79: W1_19_1 + abs_W1_19_1 >= 0
 R80: - W1_20_0 + abs_W1_20_0 >= 0
 R81: W1_20_0 + abs_W1_20_0 >= 0
 R82: - W1_20_1 + abs_W1_20_1 >= 0
 R83: W1_20_1 + abs_W1_20_1 >= 0
 R84: - W1_21_0 + abs_W1_21_0 >= 0
 R85: W1_21_0 + abs_W1_21_0 >= 0
 R86: - W1_21_1 + abs_W1_21_1 >= 0
 R87: W1_21_1 + abs_W1_21_1 >= 0
 R88: - W1_22_0 + abs_W1_22_0 >= 0
 R89: W1_22_0 + abs_W1_22_0 >= 0
 R90: - W1_22_1 + abs_W1_22_1 >= 0
 R91: W1_22_1 + abs_W1_22_1 >= 0
 R92: - W1_23_0 + abs_W1_23_0 >= 0
 R93: W1_23_0 + abs_W1_23_0 >= 0
 R94: - W1_23_1 + abs_W1_23_1 >= 0
 R95: W1_23_1 + abs_W1_23_1 >= 0
 R96: - W1_24_0 + abs_W1_24_0 >= 0
 R97: W1_24_0 + abs_W1_24_0 >= 0
 R98: - W1_24_1 + abs_W1_24_1 >= 0
 R99: W1_24_1 + abs_W1_24_1 >= 0
 R100: - W1_25_0 + abs_W1_25_0 >= 0
 R101: W1_25_0 + abs_W1_25_0 >= 0
 R102: - W1_25_1 + abs_W1_25_1 >= 0
 R103: W1_25_1 + abs_W1_25_1 >= 0
 R104: - W1_26_0 + abs_W1_26_0 >= 0
 R105: W1_26_0 + abs_W1_26_0 >= 0
 R106: - W1_26_1 + abs_W1_26_1 >= 0
 R107: W1_26_1 + abs_W1_26_1 >= 0
 R108: - W1_27_0 + abs_W1_27_0 >= 0
 R109: W1_27_0 + abs_W1_27_0 >= 0
 R110: - W1_27_1 + abs_W1_27_1 >= 0
 R111: W1_27_1 + abs_W1_27_1 >= 0
 R112: - W1_28_0 + abs_W1_28_0 >= 0
 R113: W1_28_0 + abs_W1_28_0 >= 0
 R114: - W1_28_1 + abs_W1_28_1 >= 0
 R115: W1_28_1 + abs_W1_28_1 >= 0
 R116: - W1_29_0 + abs_W1_29_0 >= 0
 R117: W1_29_0 + abs_W1_29_0 >= 0
 R118: - W1_29_1 + abs_W1_29_1 >= 0
 R119: W1_29_1 + abs_W1_29_1 >= 0
 R120: - W1_30_0 + abs_W1_30_0 >= 0
 R121: W1_30_0 + abs_W1_30_0 >= 0
 R122: - W1_30_1 + abs_W1_30_1 >= 0
 R123: W1_30_1 + abs_W1_30_1 >= 0
 R124: - W1_31_0 + abs_W1_31_0 >= 0
 R125: W1_31_0 + abs_W1_31_0 >= 0
 R126: - W1_31_1 + abs_W1_31_1 >= 0
 R127: W1_31_1 + abs_W1_31_1 >= 0
 R128: - W1_32_0 + abs_W1_32_0 >= 0
 R129: W1_32_0 + abs_W1_32_0 >= 0
 R130: - W1_32_1 + abs_W1_32_1 >= 0
 R131: W1_32_1 + abs_W1_32_1 >= 0
 R132: - W1_33_0 + abs_W1_33_0 >= 0
 R133: W1_33_0 + abs_W1_33_0 >= 0
 R134: - W1_33_1 + abs_W1_33_1 >= 0
 R135: W1_33_1 + abs_W1_33_1 >= 0
 R136: - W1_34_0 + abs_W1_34_0 >= 0
 R137: W1_34_0 + abs_W1_34_0 >= 0
 R138: - W1_34_1 + abs_W1_34_1 >= 0
 R139: W1_34_1 + abs_W1_34_1 >= 0
 R140: - W1_35_0 + abs_W1_35_0 >= 0
 R141: W1_35_0 + abs_W1_35_0 >= 0
 R142: - W1_35_1 + abs_W1_35_1 >= 0
 R143: W1_35_1 + abs_W1_35_1 >= 0
 R144: - W1_36_0 + abs_W1_36_0 >= 0
 R145: W1_36_0 + abs_W1_36_0 >= 0
 R146: - W1_36_1 + abs_W1_36_1 >= 0
 R147: W1_36_1 + abs_W1_36_1 >= 0
 R148: - W1_37_0 + abs_W1_37_0 >= 0
 R149: W1_37_0 + abs_W1_37_0 >= 0
 R150: - W1_37_1 + abs_W1_37_1 >= 0
 R151: W1_37_1 + abs_W1_37_1 >= 0
 R152: - W1_38_0 + abs_W1_38_0 >= 0
 R153: W1_38_0 + abs_W1_38_0 >= 0
 R154: - W1_38_1 + abs_W1_38_1 >= 0
 R155: W1_38_1 + abs_W1_38_1 >= 0
 R156: - W1_39_0 + abs_W1_39_0 >= 0
 R157: W1_39_0 + abs_W1_39_0 >= 0
 R158: - W1_39_1 + abs_W1_39_1 >= 0
 R159: W1_39_1 + abs_W1_39_1 >= 0
 R160: - W1_40_0 + abs_W1_40_0 >= 0
 R161: W1_40_0 + abs_W1_40_0 >= 0
 R162: - W1_40_1 + abs_W1_40_1 >= 0
 R163: W1_40_1 + abs_W1_40_1 >= 0
 R164: - W1_41_0 + abs_W1_41_0 >= 0
 R165: W1_41_0 + abs_W1_41_0 >= 0
 R166: - W1_41_1 + abs_W1_41_1 >= 0
 R167: W1_41_1 + abs_W1_41_1 >= 0
 R168: - W1_42_0 + abs_W1_42_0 >= 0
 R169: W1_42_0 + abs_W1_42_0 >= 0
 R170: - W1_42_1 + abs_W1_42_1 >= 0
 R171: W1_42_1 + abs_W1_42_1 >= 0
 R172: - W1_43_0 + abs_W1_43_0 >= 0
 R173: W1_43_0 + abs_W1_43_0 >= 0
 R174: - W1_43_1 + abs_W1_43_1 >= 0
 R175: W1_43_1 + abs_W1_43_1 >= 0
 R176: - W1_44_0 + abs_W1_44_0 >= 0
 R177: W1_44_0 + abs_W1_44_0 >= 0
 R178: - W1_44_1 + abs_W1_44_1 >= 0
 R179: W1_44_1 + abs_W1_44_1 >= 0
 R180: - W1_45_0 + abs_W1_45_0 >= 0
 R181: W1_45_0 + abs_W1_45_0 >= 0
 R182: - W1_45_1 + abs_W1_45_1 >= 0
 R183: W1_45_1 + abs_W1_45_1 >= 0
 R184: - W1_46_0 + abs_W1_46_0 >= 0
 R185: W1_46_0 + abs_W1_46_0 >= 0
 R186: - W1_46_1 + abs_W1_46_1 >= 0
 R187: W1_46_1 + abs_W1_46_1 >= 0
 R188: - W1_47_0 + abs_W1_47_0 >= 0
 R189: W1_47_0 + abs_W1_47_0 >= 0
 R190: - W1_47_1 + abs_W1_47_1 >= 0
 R191: W1_47_1 + abs_W1_47_1 >= 0
 R192: - W1_48_0 + abs_W1_48_0 >= 0
 R193: W1_48_0 + abs_W1_48_0 >= 0
 R194: - W1_48_1 + abs_W1_48_1 >= 0
 R195: W1_48_1 + abs_W1_48_1 >= 0
 R196: - W1_49_0 + abs_W1_49_0 >= 0
 R197: W1_49_0 + abs_W1_49_0 >= 0
 R198: - W1_49_1 + abs_W1_49_1 >= 0
 R199: W1_49_1 + abs_W1_49_1 >= 0
 R200: - W1_50_0 + abs_W1_50_0 >= 0
 R201: W1_50_0 + abs_W1_50_0 >= 0
 R202: - W1_50_1 + abs_W1_50_1 >= 0
 R203: W1_50_1 + abs_W1_50_1 >= 0
 R204: - W1_51_0 + abs_W1_51_0 >= 0
 R205: W1_51_0 + abs_W1_51_0 >= 0
 R206: - W1_51_1 + abs_W1_51_1 >= 0
 R207: W1_51_1 + abs_W1_51_1 >= 0
 R208: - W1_52_0 + abs_W1_52_0 >= 0
 R209: W1_52_0 + abs_W1_52_0 >= 0
 R210: - W1_52_1 + abs_W1_52_1 >= 0
 R211: W1_52_1 + abs_W1_52_1 >= 0
 R212: - W1_53_0 + abs_W1_53_0 >= 0
 R213: W1_53_0 + abs_W1_53_0 >= 0
 R214: - W1_53_1 + abs_W1_53_1 >= 0
 R215: W1_53_1 + abs_W1_53_1 >= 0
 R216: - W1_54_0 + abs_W1_54_0 >= 0
 R217: W1_54_0 + abs_W1_54_0 >= 0
 R218: - W1_54_1 + abs_W1_54_1 >= 0
 R219: W1_54_1 + abs_W1_54_1 >= 0
 R220: - W1_55_0 + abs_W1_55_0 >= 0
 R221: W1_55_0 + abs_W1_55_0 >= 0
 R222: - W1_55_1 + abs_W1_55_1 >= 0
 R223: W1_55_1 + abs_W1_55_1 >= 0
 R224: - W1_56_0 + abs_W1_56_0 >= 0
 R225: W1_56_0 + abs_W1_56_0 >= 0
 R226: - W1_56_1 + abs_W1_56_1 >= 0
 R227: W1_56_1 + abs_W1_56_1 >= 0
 R228: - W1_57_0 + abs_W1_57_0 >= 0
 R229: W1_57_0 + abs_W1_57_0 >= 0
 R230: - W1_57_1 + abs_W1_57_1 >= 0
 R231: W1_57_1 + abs_W1_57_1 >= 0
 R232: - W1_58_0 + abs_W1_58_0 >= 0
 R233: W1_58_0 + abs_W1_58_0 >= 0
 R234: - W1_58_1 + abs_W1_58_1 >= 0
 R235: W1_58_1 + abs_W1_58_1 >= 0
 R236: - W1_59_0 + abs_W1_59_0 >= 0
 R237: W1_59_0 + abs_W1_59_0 >= 0
 R238: - W1_59_1 + abs_W1_59_1 >= 0
 R239: W1_59_1 + abs_W1_59_1 >= 0
 R240: - W1_60_0 + abs_W1_60_0 >= 0
 R241: W1_60_0 + abs_W1_60_0 >= 0
 R242: - W1_60_1 + abs_W1_60_1 >= 0
 R243: W1_60_1 + abs_W1_60_1 >= 0
 R244: - W1_61_0 + abs_W1_61_0 >= 0
 R245: W1_61_0 + abs_W1_61_0 >= 0
 R246: - W1_61_1 + abs_W1_61_1 >= 0
 R247: W1_61_1 + abs_W1_61_1 >= 0
 R248: - W1_62_0 + abs_W1_62_0 >= 0
 R249: W1_62_0 + abs_W1_62_0 >= 0
 R250: - W1_62_1 + abs_W1_62_1 >= 0
 R251: W1_62_1 + abs_W1_62_1 >= 0
 R252: - W1_63_0 + abs_W1_63_0 >= 0
 R253: W1_63_0 + abs_W1_63_0 >= 0
 R254: - W1_63_1 + abs_W1_63_1 >= 0
 R255: W1_63_1 + abs_W1_63_1 >= 0
 R256: - W1_64_0 + abs_W1_64_0 >= 0
 R257: W1_64_0 + abs_W1_64_0 >= 0
 R258: - W1_64_1 + abs_W1_64_1 >= 0
 R259: W1_64_1 + abs_W1_64_1 >= 0
 R260: - W1_65_0 + abs_W1_65_0 >= 0
 R261: W1_65_0 + abs_W1_65_0 >= 0
 R262: - W1_65_1 + abs_W1_65_1 >= 0
 R263: W1_65_1 + abs_W1_65_1 >= 0
 R264: - W1_66_0 + abs_W1_66_0 >= 0
 R265: W1_66_0 + abs_W1_66_0 >= 0
 R266: - W1_66_1 + abs_W1_66_1 >= 0
 R267: W1_66_1 + abs_W1_66_1 >= 0
 R268: - W1_67_0 + abs_W1_67_0 >= 0
 R269: W1_67_0 + abs_W1_67_0 >= 0
 R270: - W1_67_1 + abs_W1_67_1 >= 0
 R271: W1_67_1 + abs_W1_67_1 >= 0
 R272: - W1_68_0 + abs_W1_68_0 >= 0
 R273: W1_68_0 + abs_W1_68_0 >= 0
 R274: - W1_68_1 + abs_W1_68_1 >= 0
 R275: W1_68_1 + abs_W1_68_1 >= 0
 R276: - W1_69_0 + abs_W1_69_0 >= 0
 R277: W1_69_0 + abs_W1_69_0 >= 0
 R278: - W1_69_1 + abs_W1_69_1 >= 0
 R279: W1_69_1 + abs_W1_69_1 >= 0
 R280: - W1_70_0 + abs_W1_70_0 >= 0
 R281: W1_70_0 + abs_W1_70_0 >= 0
 R282: - W1_70_1 + abs_W1_70_1 >= 0
 R283: W1_70_1 + abs_W1_70_1 >= 0
 R284: - W1_71_0 + abs_W1_71_0 >= 0
 R285: W1_71_0 + abs_W1_71_0 >= 0
 R286: - W1_71_1 + abs_W1_71_1 >= 0
 R287: W1_71_1 + abs_W1_71_1 >= 0
 R288: - W1_72_0 + abs_W1_72_0 >= 0
 R289: W1_72_0 + abs_W1_72_0 >= 0
 R290: - W1_72_1 + abs_W1_72_1 >= 0
 R291: W1_72_1 + abs_W1_72_1 >= 0
 R292: - W1_73_0 + abs_W1_73_0 >= 0
 R293: W1_73_0 + abs_W1_73_0 >= 0
 R294: - W1_73_1 + abs_W1_73_1 >= 0
 R295: W1_73_1 + abs_W1_73_1 >= 0
 R296: - W1_74_0 + abs_W1_74_0 >= 0
 R297: W1_74_0 + abs_W1_74_0 >= 0
 R298: - W1_74_1 + abs_W1_74_1 >= 0
 R299: W1_74_1 + abs_W1_74_1 >= 0
 R300: - W1_75_0 + abs_W1_75_0 >= 0
 R301: W1_75_0 + abs_W1_75_0 >= 0
 R302: - W1_75_1 + abs_W1_75_1 >= 0
 R303: W1_75_1 + abs_W1_75_1 >= 0
 R304: - W1_76_0 + abs_W1_76_0 >= 0
 R305: W1_76_0 + abs_W1_76_0 >= 0
 R306: - W1_76_1 + abs_W1_76_1 >= 0
 R307: W1_76_1 + abs_W1_76_1 >= 0
 R308: - W1_77_0 + abs_W1_77_0 >= 0
 R309: W1_77_0 + abs_W1_77_0 >= 0
 R310: - W1_77_1 + abs_W1_77_1 >= 0
 R311: W1_77_1 + abs_W1_77_1 >= 0
 R312: - W1_78_0 + abs_W1_78_0 >= 0
 R313: W1_78_0 + abs_W1_78_0 >= 0
 R314: - W1_78_1 + abs_W1_78_1 >= 0
 R315: W1_78_1 + abs_W1_78_1 >= 0
 R316: - W1_79_0 + abs_W1_79_0 >= 0
 R317: W1_79_0 + abs_W1_79_0 >= 0
 R318: - W1_79_1 + abs_W1_79_1 >= 0
 R319: W1_79_1 + abs_W1_79_1 >= 0
 R320: - W1_80_0 + abs_W1_80_0 >= 0
 R321: W1_80_0 + abs_W1_80_0 >= 0
 R322: - W1_80_1 + abs_W1_80_1 >= 0
 R323: W1_80_1 + abs_W1_80_1 >= 0
 R324: - W1_81_0 + abs_W1_81_0 >= 0
 R325: W1_81_0 + abs_W1_81_0 >= 0
 R326: - W1_81_1 + abs_W1_81_1 >= 0
 R327: W1_81_1 + abs_W1_81_1 >= 0
 R328: - W1_82_0 + abs_W1_82_0 >= 0
 R329: W1_82_0 + abs_W1_82_0 >= 0
 R330: - W1_82_1 + abs_W1_82_1 >= 0
 R331: W1_82_1 + abs_W1_82_1 >= 0
 R332: - W1_83_0 + abs_W1_83_0 >= 0
 R333: W1_83_0 + abs_W1_83_0 >= 0
 R334: - W1_83_1 + abs_W1_83_1 >= 0
 R335: W1_83_1 + abs_W1_83_1 >= 0
 R336: - W1_84_0 + abs_W1_84_0 >= 0
 R337: W1_84_0 + abs_W1_84_0 >= 0
 R338: - W1_84_1 + abs_W1_84_1 >= 0
 R339: W1_84_1 + abs_W1_84_1 >= 0
 R340: - W1_85_0 + abs_W1_85_0 >= 0
 R341: W1_85_0 + abs_W1_85_0 >= 0
 R342: - W1_85_1 + abs_W1_85_1 >= 0
 R343: W1_85_1 + abs_W1_85_1 >= 0
 R344: - W1_86_0 + abs_W1_86_0 >= 0
 R345: W1_86_0 + abs_W1_86_0 >= 0
 R346: - W1_86_1 + abs_W1_86_1 >= 0
 R347: W1_86_1 + abs_W1_86_1 >= 0
 R348: - W1_87_0 + abs_W1_87_0 >= 0
 R349: W1_87_0 + abs_W1_87_0 >= 0
 R350: - W1_87_1 + abs_W1_87_1 >= 0
 R351: W1_87_1 + abs_W1_87_1 >= 0
 R352: - W1_88_0 + abs_W1_88_0 >= 0
 R353: W1_88_0 + abs_W1_88_0 >= 0
 R354: - W1_88_1 + abs_W1_88_1 >= 0
 R355: W1_88_1 + abs_W1_88_1 >= 0
 R356: - W1_89_0 + abs_W1_89_0 >= 0
 R357: W1_89_0 + abs_W1_89_0 >= 0
 R358: - W1_89_1 + abs_W1_89_1 >= 0
 R359: W1_89_1 + abs_W1_89_1 >= 0
 R360: - W1_90_0 + abs_W1_90_0 >= 0
 R361: W1_90_0 + abs_W1_90_0 >= 0
 R362: - W1_90_1 + abs_W1_90_1 >= 0
 R363: W1_90_1 + abs_W1_90_1 >= 0
 R364: - W1_91_0 + abs_W1_91_0 >= 0
 R365: W1_91_0 + abs_W1_91_0 >= 0
 R366: - W1_91_1 + abs_W1_91_1 >= 0
 R367: W1_91_1 + abs_W1_91_1 >= 0
 R368: - W1_92_0 + abs_W1_92_0 >= 0
 R369: W1_92_0 + abs_W1_92_0 >= 0
 R370: - W1_92_1 + abs_W1_92_1 >= 0
 R371: W1_92_1 + abs_W1_92_1 >= 0
 R372: - W1_93_0 + abs_W1_93_0 >= 0
 R373: W1_93_0 + abs_W1_93_0 >= 0
 R374: - W1_93_1 + abs_W1_93_1 >= 0
 R375: W1_93_1 + abs_W1_93_1 >= 0
 R376: - W1_94_0 + abs_W1_94_0 >= 0
 R377: W1_94_0 + abs_W1_94_0 >= 0
 R378: - W1_94_1 + abs_W1_94_1 >= 0
 R379: W1_94_1 + abs_W1_94_1 >= 0
 R380: - W1_95_0 + abs_W1_95_0 >= 0
 R381: W1_95_0 + abs_W1_95_0 >= 0
 R382: - W1_95_1 + abs_W1_95_1 >= 0
 R383: W1_95_1 + abs_W1_95_1 >= 0
 R384: - W1_96_0 + abs_W1_96_0 >= 0
 R385: W1_96_0 + abs_W1_96_0 >= 0
 R386: - W1_96_1 + abs_W1_96_1 >= 0
 R387: W1_96_1 + abs_W1_96_1 >= 0
 R388: - W1_97_0 + abs_W1_97_0 >= 0
 R389: W1_97_0 + abs_W1_97_0 >= 0
 R390: - W1_97_1 + abs_W1_97_1 >= 0
 R391: W1_97_1 + abs_W1_97_1 >= 0
 R392: - W1_98_0 + abs_W1_98_0 >= 0
 R393: W1_98_0 + abs_W1_98_0 >= 0
 R394: - W1_98_1 + abs_W1_98_1 >= 0
 R395: W1_98_1 + abs_W1_98_1 >= 0
 R396: - W1_99_0 + abs_W1_99_0 >= 0
 R397: W1_99_0 + abs_W1_99_0 >= 0
 R398: - W1_99_1 + abs_W1_99_1 >= 0
 R399: W1_99_1 + abs_W1_99_1 >= 0
 R400: - W1_100_0 + abs_W1_100_0 >= 0
 R401: W1_100_0 + abs_W1_100_0 >= 0
 R402: - W1_100_1 + abs_W1_100_1 >= 0
 R403: W1_100_1 + abs_W1_100_1 >= 0
 R404: - W1_101_0 + abs_W1_101_0 >= 0
 R405: W1_101_0 + abs_W1_101_0 >= 0
 R406: - W1_101_1 + abs_W1_101_1 >= 0
 R407: W1_101_1 + abs_W1_101_1 >= 0
 R408: - W1_102_0 + abs_W1_102_0 >= 0
 R409: W1_102_0 + abs_W1_102_0 >= 0
 R410: - W1_102_1 + abs_W1_102_1 >= 0
 R411: W1_102_1 + abs_W1_102_1 >= 0
 R412: - W1_103_0 + abs_W1_103_0 >= 0
 R413: W1_103_0 + abs_W1_103_0 >= 0
 R414: - W1_103_1 + abs_W1_103_1 >= 0
 R415: W1_103_1 + abs_W1_103_1 >= 0
 R416: - W1_104_0 + abs_W1_104_0 >= 0
 R417: W1_104_0 + abs_W1_104_0 >= 0
 R418: - W1_104_1 + abs_W1_104_1 >= 0
 R419: W1_104_1 + abs_W1_104_1 >= 0
 R420: - W1_105_0 + abs_W1_105_0 >= 0
 R421: W1_105_0 + abs_W1_105_0 >= 0
 R422: - W1_105_1 + abs_W1_105_1 >= 0
 R423: W1_105_1 + abs_W1_105_1 >= 0
 R424: - W1_106_0 + abs_W1_106_0 >= 0
 R425: W1_106_0 + abs_W1_106_0 >= 0
 R426: - W1_106_1 + abs_W1_106_1 >= 0
 R427: W1_106_1 + abs_W1_106_1 >= 0
 R428: - W1_107_0 + abs_W1_107_0 >= 0
 R429: W1_107_0 + abs_W1_107_0 >= 0
 R430: - W1_107_1 + abs_W1_107_1 >= 0
 R431: W1_107_1 + abs_W1_107_1 >= 0
 R432: - W1_108_0 + abs_W1_108_0 >= 0
 R433: W1_108_0 + abs_W1_108_0 >= 0
 R434: - W1_108_1 + abs_W1_108_1 >= 0
 R435: W1_108_1 + abs_W1_108_1 >= 0
 R436: - W1_109_0 + abs_W1_109_0 >= 0
 R437: W1_109_0 + abs_W1_109_0 >= 0
 R438: - W1_109_1 + abs_W1_109_1 >= 0
 R439: W1_109_1 + abs_W1_109_1 >= 0
 R440: - W1_110_0 + abs_W1_110_0 >= 0
 R441: W1_110_0 + abs_W1_110_0 >= 0
 R442: - W1_110_1 + abs_W1_110_1 >= 0
 R443: W1_110_1 + abs_W1_110_1 >= 0
 R444: - W1_111_0 + abs_W1_111_0 >= 0
 R445: W1_111_0 + abs_W1_111_0 >= 0
 R446: - W1_111_1 + abs_W1_111_1 >= 0
 R447: W1_111_1 + abs_W1_111_1 >= 0
 R448: - W1_112_0 + abs_W1_112_0 >= 0
 R449: W1_112_0 + abs_W1_112_0 >= 0
 R450: - W1_112_1 + abs_W1_112_1 >= 0
 R451: W1_112_1 + abs_W1_112_1 >= 0
 R452: - W1_113_0 + abs_W1_113_0 >= 0
 R453: W1_113_0 + abs_W1_113_0 >= 0
 R454: - W1_113_1 + abs_W1_113_1 >= 0
 R455: W1_113_1 + abs_W1_113_1 >= 0
 R456: - W1_114_0 + abs_W1_114_0 >= 0
 R457: W1_114_0 + abs_W1_114_0 >= 0
 R458: - W1_114_1 + abs_W1_114_1 >= 0
 R459: W1_114_1 + abs_W1_114_1 >= 0
 R460: - W1_115_0 + abs_W1_115_0 >= 0
 R461: W1_115_0 + abs_W1_115_0 >= 0
 R462: - W1_115_1 + abs_W1_115_1 >= 0
 R463: W1_115_1 + abs_W1_115_1 >= 0
 R464: - W1_116_0 + abs_W1_116_0 >= 0
 R465: W1_116_0 + abs_W1_116_0 >= 0
 R466: - W1_116_1 + abs_W1_116_1 >= 0
 R467: W1_116_1 + abs_W1_116_1 >= 0
 R468: - W1_117_0 + abs_W1_117_0 >= 0
 R469: W1_117_0 + abs_W1_117_0 >= 0
 R470: - W1_117_1 + abs_W1_117_1 >= 0
 R471: W1_117_1 + abs_W1_117_1 >= 0
 R472: - W1_118_0 + abs_W1_118_0 >= 0
 R473: W1_118_0 + abs_W1_118_0 >= 0
 R474: - W1_118_1 + abs_W1_118_1 >= 0
 R475: W1_118_1 + abs_W1_118_1 >= 0
 R476: - W1_119_0 + abs_W1_119_0 >= 0
 R477: W1_119_0 + abs_W1_119_0 >= 0
 R478: - W1_119_1 + abs_W1_119_1 >= 0
 R479: W1_119_1 + abs_W1_119_1 >= 0
 R480: - W1_120_0 + abs_W1_120_0 >= 0
 R481: W1_120_0 + abs_W1_120_0 >= 0
 R482: - W1_120_1 + abs_W1_120_1 >= 0
 R483: W1_120_1 + abs_W1_120_1 >= 0
 R484: - W1_121_0 + abs_W1_121_0 >= 0
 R485: W1_121_0 + abs_W1_121_0 >= 0
 R486: - W1_121_1 + abs_W1_121_1 >= 0
 R487: W1_121_1 + abs_W1_121_1 >= 0
 R488: - W1_122_0 + abs_W1_122_0 >= 0
 R489: W1_122_0 + abs_W1_122_0 >= 0
 R490: - W1_122_1 + abs_W1_122_1 >= 0
 R491: W1_122_1 + abs_W1_122_1 >= 0
 R492: - W1_123_0 + abs_W1_123_0 >= 0
 R493: W1_123_0 + abs_W1_123_0 >= 0
 R494: - W1_123_1 + abs_W1_123_1 >= 0
 R495: W1_123_1 + abs_W1_123_1 >= 0
 R496: - W1_124_0 + abs_W1_124_0 >= 0
 R497: W1_124_0 + abs_W1_124_0 >= 0
 R498: - W1_124_1 + abs_W1_124_1 >= 0
 R499: W1_124_1 + abs_W1_124_1 >= 0
 R500: - W1_125_0 + abs_W1_125_0 >= 0
 R501: W1_125_0 + abs_W1_125_0 >= 0
 R502: - W1_125_1 + abs_W1_125_1 >= 0
 R503: W1_125_1 + abs_W1_125_1 >= 0
 R504: - W1_126_0 + abs_W1_126_0 >= 0
 R505: W1_126_0 + abs_W1_126_0 >= 0
 R506: - W1_126_1 + abs_W1_126_1 >= 0
 R507: W1_126_1 + abs_W1_126_1 >= 0
 R508: - W1_127_0 + abs_W1_127_0 >= 0
 R509: W1_127_0 + abs_W1_127_0 >= 0
 R510: - W1_127_1 + abs_W1_127_1 >= 0
 R511: W1_127_1 + abs_W1_127_1 >= 0
 R512: - W1_128_0 + abs_W1_128_0 >= 0
 R513: W1_128_0 + abs_W1_128_0 >= 0
 R514: - W1_128_1 + abs_W1_128_1 >= 0
 R515: W1_128_1 + abs_W1_128_1 >= 0
 R516: - W1_129_0 + abs_W1_129_0 >= 0
 R517: W1_129_0 + abs_W1_129_0 >= 0
 R518: - W1_129_1 + abs_W1_129_1 >= 0
 R519: W1_129_1 + abs_W1_129_1 >= 0
 R520: - W1_130_0 + abs_W1_130_0 >= 0
 R521: W1_130_0 + abs_W1_130_0 >= 0
 R522: - W1_130_1 + abs_W1_130_1 >= 0
 R523: W1_130_1 + abs_W1_130_1 >= 0
 R524: - W1_131_0 + abs_W1_131_0 >= 0
 R525: W1_131_0 + abs_W1_131_0 >= 0
 R526: - W1_131_1 + abs_W1_131_1 >= 0
 R527: W1_131_1 + abs_W1_131_1 >= 0
 R528: - W1_132_0 + abs_W1_132_0 >= 0
 R529: W1_132_0 + abs_W1_132_0 >= 0
 R530: - W1_132_1 + abs_W1_132_1 >= 0
 R531: W1_132_1 + abs_W1_132_1 >= 0
 R532: - W1_133_0 + abs_W1_133_0 >= 0
 R533: W1_133_0 + abs_W1_133_0 >= 0
 R534: - W1_133_1 + abs_W1_133_1 >= 0
 R535: W1_133_1 + abs_W1_133_1 >= 0
 R536: - W1_134_0 + abs_W1_134_0 >= 0
 R537: W1_134_0 + abs_W1_134_0 >= 0
 R538: - W1_134_1 + abs_W1_134_1 >= 0
 R539: W1_134_1 + abs_W1_134_1 >= 0
 R540: - W1_135_0 + abs_W1_135_0 >= 0
 R541: W1_135_0 + abs_W1_135_0 >= 0
 R542: - W1_135_1 + abs_W1_135_1 >= 0
 R543: W1_135_1 + abs_W1_135_1 >= 0
 R544: - W1_136_0 + abs_W1_136_0 >= 0
 R545: W1_136_0 + abs_W1_136_0 >= 0
 R546: - W1_136_1 + abs_W1_136_1 >= 0
 R547: W1_136_1 + abs_W1_136_1 >= 0
 R548: - W1_137_0 + abs_W1_137_0 >= 0
 R549: W1_137_0 + abs_W1_137_0 >= 0
 R550: - W1_137_1 + abs_W1_137_1 >= 0
 R551: W1_137_1 + abs_W1_137_1 >= 0
 R552: - W1_138_0 + abs_W1_138_0 >= 0
 R553: W1_138_0 + abs_W1_138_0 >= 0
 R554: - W1_138_1 + abs_W1_138_1 >= 0
 R555: W1_138_1 + abs_W1_138_1 >= 0
 R556: - W1_139_0 + abs_W1_139_0 >= 0
 R557: W1_139_0 + abs_W1_139_0 >= 0
 R558: - W1_139_1 + abs_W1_139_1 >= 0
 R559: W1_139_1 + abs_W1_139_1 >= 0
 R560: - W1_140_0 + abs_W1_140_0 >= 0
 R561: W1_140_0 + abs_W1_140_0 >= 0
 R562: - W1_140_1 + abs_W1_140_1 >= 0
 R563: W1_140_1 + abs_W1_140_1 >= 0
 R564: - W1_141_0 + abs_W1_141_0 >= 0
 R565: W1_141_0 + abs_W1_141_0 >= 0
 R566: - W1_141_1 + abs_W1_141_1 >= 0
 R567: W1_141_1 + abs_W1_141_1 >= 0
 R568: - W1_142_0 + abs_W1_142_0 >= 0
 R569: W1_142_0 + abs_W1_142_0 >= 0
 R570: - W1_142_1 + abs_W1_142_1 >= 0
 R571: W1_142_1 + abs_W1_142_1 >= 0
 R572: - W1_143_0 + abs_W1_143_0 >= 0
 R573: W1_143_0 + abs_W1_143_0 >= 0
 R574: - W1_143_1 + abs_W1_143_1 >= 0
 R575: W1_143_1 + abs_W1_143_1 >= 0
 R576: - W1_144_0 + abs_W1_144_0 >= 0
 R577: W1_144_0 + abs_W1_144_0 >= 0
 R578: - W1_144_1 + abs_W1_144_1 >= 0
 R579: W1_144_1 + abs_W1_144_1 >= 0
 R580: - W1_145_0 + abs_W1_145_0 >= 0
 R581: W1_145_0 + abs_W1_145_0 >= 0
 R582: - W1_145_1 + abs_W1_145_1 >= 0
 R583: W1_145_1 + abs_W1_145_1 >= 0
 R584: - W1_146_0 + abs_W1_146_0 >= 0
 R585: W1_146_0 + abs_W1_146_0 >= 0
 R586: - W1_146_1 + abs_W1_146_1 >= 0
 R587: W1_146_1 + abs_W1_146_1 >= 0
 R588: - W1_147_0 + abs_W1_147_0 >= 0
 R589: W1_147_0 + abs_W1_147_0 >= 0
 R590: - W1_147_1 + abs_W1_147_1 >= 0
 R591: W1_147_1 + abs_W1_147_1 >= 0
 R592: - W1_148_0 + abs_W1_148_0 >= 0
 R593: W1_148_0 + abs_W1_148_0 >= 0
 R594: - W1_148_1 + abs_W1_148_1 >= 0
 R595: W1_148_1 + abs_W1_148_1 >= 0
 R596: - W1_149_0 + abs_W1_149_0 >= 0
 R597: W1_149_0 + abs_W1_149_0 >= 0
 R598: - W1_149_1 + abs_W1_149_1 >= 0
 R599: W1_149_1 + abs_W1_149_1 >= 0
 R600: - W1_150_0 + abs_W1_150_0 >= 0
 R601: W1_150_0 + abs_W1_150_0 >= 0
 R602: - W1_150_1 + abs_W1_150_1 >= 0
 R603: W1_150_1 + abs_W1_150_1 >= 0
 R604: - W1_151_0 + abs_W1_151_0 >= 0
 R605: W1_151_0 + abs_W1_151_0 >= 0
 R606: - W1_151_1 + abs_W1_151_1 >= 0
 R607: W1_151_1 + abs_W1_151_1 >= 0
 R608: - W1_152_0 + abs_W1_152_0 >= 0
 R609: W1_152_0 + abs_W1_152_0 >= 0
 R610: - W1_152_1 + abs_W1_152_1 >= 0
 R611: W1_152_1 + abs_W1_152_1 >= 0
 R612: - W1_153_0 + abs_W1_153_0 >= 0
 R613: W1_153_0 + abs_W1_153_0 >= 0
 R614: - W1_153_1 + abs_W1_153_1 >= 0
 R615: W1_153_1 + abs_W1_153_1 >= 0
 R616: - W1_154_0 + abs_W1_154_0 >= 0
 R617: W1_154_0 + abs_W1_154_0 >= 0
 R618: - W1_154_1 + abs_W1_154_1 >= 0
 R619: W1_154_1 + abs_W1_154_1 >= 0
 R620: - W1_155_0 + abs_W1_155_0 >= 0
 R621: W1_155_0 + abs_W1_155_0 >= 0
 R622: - W1_155_1 + abs_W1_155_1 >= 0
 R623: W1_155_1 + abs_W1_155_1 >= 0
 R624: - W1_156_0 + abs_W1_156_0 >= 0
 R625: W1_156_0 + abs_W1_156_0 >= 0
 R626: - W1_156_1 + abs_W1_156_1 >= 0
 R627: W1_156_1 + abs_W1_156_1 >= 0
 R628: - W1_157_0 + abs_W1_157_0 >= 0
 R629: W1_157_0 + abs_W1_157_0 >= 0
 R630: - W1_157_1 + abs_W1_157_1 >= 0
 R631: W1_157_1 + abs_W1_157_1 >= 0
 R632: - W1_158_0 + abs_W1_158_0 >= 0
 R633: W1_158_0 + abs_W1_158_0 >= 0
 R634: - W1_158_1 + abs_W1_158_1 >= 0
 R635: W1_158_1 + abs_W1_158_1 >= 0
 R636: - W1_159_0 + abs_W1_159_0 >= 0
 R637: W1_159_0 + abs_W1_159_0 >= 0
 R638: - W1_159_1 + abs_W1_159_1 >= 0
 R639: W1_159_1 + abs_W1_159_1 >= 0
 R640: - W1_160_0 + abs_W1_160_0 >= 0
 R641: W1_160_0 + abs_W1_160_0 >= 0
 R642: - W1_160_1 + abs_W1_160_1 >= 0
 R643: W1_160_1 + abs_W1_160_1 >= 0
 R644: - W1_161_0 + abs_W1_161_0 >= 0
 R645: W1_161_0 + abs_W1_161_0 >= 0
 R646: - W1_161_1 + abs_W1_161_1 >= 0
 R647: W1_161_1 + abs_W1_161_1 >= 0
 R648: - W1_162_0 + abs_W1_162_0 >= 0
 R649: W1_162_0 + abs_W1_162_0 >= 0
 R650: - W1_162_1 + abs_W1_162_1 >= 0
 R651: W1_162_1 + abs_W1_162_1 >= 0
 R652: - W1_163_0 + abs_W1_163_0 >= 0
 R653: W1_163_0 + abs_W1_163_0 >= 0
 R654: - W1_163_1 + abs_W1_163_1 >= 0
 R655: W1_163_1 + abs_W1_163_1 >= 0
 R656: - W1_164_0 + abs_W1_164_0 >= 0
 R657: W1_164_0 + abs_W1_164_0 >= 0
 R658: - W1_164_1 + abs_W1_164_1 >= 0
 R659: W1_164_1 + abs_W1_164_1 >= 0
 R660: - W1_165_0 + abs_W1_165_0 >= 0
 R661: W1_165_0 + abs_W1_165_0 >= 0
 R662: - W1_165_1 + abs_W1_165_1 >= 0
 R663: W1_165_1 + abs_W1_165_1 >= 0
 R664: - W1_166_0 + abs_W1_166_0 >= 0
 R665: W1_166_0 + abs_W1_166_0 >= 0
 R666: - W1_166_1 + abs_W1_166_1 >= 0
 R667: W1_166_1 + abs_W1_166_1 >= 0
 R668: - W1_167_0 + abs_W1_167_0 >= 0
 R669: W1_167_0 + abs_W1_167_0 >= 0
 R670: - W1_167_1 + abs_W1_167_1 >= 0
 R671: W1_167_1 + abs_W1_167_1 >= 0
 R672: - W1_168_0 + abs_W1_168_0 >= 0
 R673: W1_168_0 + abs_W1_168_0 >= 0
 R674: - W1_168_1 + abs_W1_168_1 >= 0
 R675: W1_168_1 + abs_W1_168_1 >= 0
 R676: - W1_169_0 + abs_W1_169_0 >= 0
 R677: W1_169_0 + abs_W1_169_0 >= 0
 R678: - W1_169_1 + abs_W1_169_1 >= 0
 R679: W1_169_1 + abs_W1_169_1 >= 0
 R680: - W1_170_0 + abs_W1_170_0 >= 0
 R681: W1_170_0 + abs_W1_170_0 >= 0
 R682: - W1_170_1 + abs_W1_170_1 >= 0
 R683: W1_170_1 + abs_W1_170_1 >= 0
 R684: - W1_171_0 + abs_W1_171_0 >= 0
 R685: W1_171_0 + abs_W1_171_0 >= 0
 R686: - W1_171_1 + abs_W1_171_1 >= 0
 R687: W1_171_1 + abs_W1_171_1 >= 0
 R688: - W1_172_0 + abs_W1_172_0 >= 0
 R689: W1_172_0 + abs_W1_172_0 >= 0
 R690: - W1_172_1 + abs_W1_172_1 >= 0
 R691: W1_172_1 + abs_W1_172_1 >= 0
 R692: - W1_173_0 + abs_W1_173_0 >= 0
 R693: W1_173_0 + abs_W1_173_0 >= 0
 R694: - W1_173_1 + abs_W1_173_1 >= 0
 R695: W1_173_1 + abs_W1_173_1 >= 0
 R696: - W1_174_0 + abs_W1_174_0 >= 0
 R697: W1_174_0 + abs_W1_174_0 >= 0
 R698: - W1_174_1 + abs_W1_174_1 >= 0
 R699: W1_174_1 + abs_W1_174_1 >= 0
 R700: - W1_175_0 + abs_W1_175_0 >= 0
 R701: W1_175_0 + abs_W1_175_0 >= 0
 R702: - W1_175_1 + abs_W1_175_1 >= 0
 R703: W1_175_1 + abs_W1_175_1 >= 0
 R704: - W1_176_0 + abs_W1_176_0 >= 0
 R705: W1_176_0 + abs_W1_176_0 >= 0
 R706: - W1_176_1 + abs_W1_176_1 >= 0
 R707: W1_176_1 + abs_W1_176_1 >= 0
 R708: - W1_177_0 + abs_W1_177_0 >= 0
 R709: W1_177_0 + abs_W1_177_0 >= 0
 R710: - W1_177_1 + abs_W1_177_1 >= 0
 R711: W1_177_1 + abs_W1_177_1 >= 0
 R712: - W1_178_0 + abs_W1_178_0 >= 0
 R713: W1_178_0 + abs_W1_178_0 >= 0
 R714: - W1_178_1 + abs_W1_178_1 >= 0
 R715: W1_178_1 + abs_W1_178_1 >= 0
 R716: - W1_179_0 + abs_W1_179_0 >= 0
 R717: W1_179_0 + abs_W1_179_0 >= 0
 R718: - W1_179_1 + abs_W1_179_1 >= 0
 R719: W1_179_1 + abs_W1_179_1 >= 0
 R720: - W1_180_0 + abs_W1_180_0 >= 0
 R721: W1_180_0 + abs_W1_180_0 >= 0
 R722: - W1_180_1 + abs_W1_180_1 >= 0
 R723: W1_180_1 + abs_W1_180_1 >= 0
 R724: - W1_181_0 + abs_W1_181_0 >= 0
 R725: W1_181_0 + abs_W1_181_0 >= 0
 R726: - W1_181_1 + abs_W1_181_1 >= 0
 R727: W1_181_1 + abs_W1_181_1 >= 0
 R728: - W1_182_0 + abs_W1_182_0 >= 0
 R729: W1_182_0 + abs_W1_182_0 >= 0
 R730: - W1_182_1 + abs_W1_182_1 >= 0
 R731: W1_182_1 + abs_W1_182_1 >= 0
 R732: - W1_183_0 + abs_W1_183_0 >= 0
 R733: W1_183_0 + abs_W1_183_0 >= 0
 R734: - W1_183_1 + abs_W1_183_1 >= 0
 R735: W1_183_1 + abs_W1_183_1 >= 0
 R736: - W1_184_0 + abs_W1_184_0 >= 0
 R737: W1_184_0 + abs_W1_184_0 >= 0
 R738: - W1_184_1 + abs_W1_184_1 >= 0
 R739: W1_184_1 + abs_W1_184_1 >= 0
 R740: - W1_185_0 + abs_W1_185_0 >= 0
 R741: W1_185_0 + abs_W1_185_0 >= 0
 R742: - W1_185_1 + abs_W1_185_1 >= 0
 R743: W1_185_1 + abs_W1_185_1 >= 0
 R744: - W1_186_0 + abs_W1_186_0 >= 0
 R745: W1_186_0 + abs_W1_186_0 >= 0
 R746: - W1_186_1 + abs_W1_186_1 >= 0
 R747: W1_186_1 + abs_W1_186_1 >= 0
 R748: - W1_187_0 + abs_W1_187_0 >= 0
 R749: W1_187_0 + abs_W1_187_0 >= 0
 R750: - W1_187_1 + abs_W1_187_1 >= 0
 R751: W1_187_1 + abs_W1_187_1 >= 0
 R752: - W1_188_0 + abs_W1_188_0 >= 0
 R753: W1_188_0 + abs_W1_188_0 >= 0
 R754: - W1_188_1 + abs_W1_188_1 >= 0
 R755: W1_188_1 + abs_W1_188_1 >= 0
 R756: - W1_189_0 + abs_W1_189_0 >= 0
 R757: W1_189_0 + abs_W1_189_0 >= 0
 R758: - W1_189_1 + abs_W1_189_1 >= 0
 R759: W1_189_1 + abs_W1_189_1 >= 0
 R760: - W1_190_0 + abs_W1_190_0 >= 0
 R761: W1_190_0 + abs_W1_190_0 >= 0
 R762: - W1_190_1 + abs_W1_190_1 >= 0
 R763: W1_190_1 + abs_W1_190_1 >= 0
 R764: - W1_191_0 + abs_W1_191_0 >= 0
 R765: W1_191_0 + abs_W1_191_0 >= 0
 R766: - W1_191_1 + abs_W1_191_1 >= 0
 R767: W1_191_1 + abs_W1_191_1 >= 0
 R768: - W1_192_0 + abs_W1_192_0 >= 0
 R769: W1_192_0 + abs_W1_192_0 >= 0
 R770: - W1_192_1 + abs_W1_192_1 >= 0
 R771: W1_192_1 + abs_W1_192_1 >= 0
 R772: - W1_193_0 + abs_W1_193_0 >= 0
 R773: W1_193_0 + abs_W1_193_0 >= 0
 R774: - W1_193_1 + abs_W1_193_1 >= 0
 R775: W1_193_1 + abs_W1_193_1 >= 0
 R776: - W1_194_0 + abs_W1_194_0 >= 0
 R777: W1_194_0 + abs_W1_194_0 >= 0
 R778: - W1_194_1 + abs_W1_194_1 >= 0
 R779: W1_194_1 + abs_W1_194_1 >= 0
 R780: - W1_195_0 + abs_W1_195_0 >= 0
 R781: W1_195_0 + abs_W1_195_0 >= 0
 R782: - W1_195_1 + abs_W1_195_1 >= 0
 R783: W1_195_1 + abs_W1_195_1 >= 0
 R784: - W1_196_0 + abs_W1_196_0 >= 0
 R785: W1_196_0 + abs_W1_196_0 >= 0
 R786: - W1_196_1 + abs_W1_196_1 >= 0
 R787: W1_196_1 + abs_W1_196_1 >= 0
 R788: - W1_197_0 + abs_W1_197_0 >= 0
 R789: W1_197_0 + abs_W1_197_0 >= 0
 R790: - W1_197_1 + abs_W1_197_1 >= 0
 R791: W1_197_1 + abs_W1_197_1 >= 0
 R792: - W1_198_0 + abs_W1_198_0 >= 0
 R793: W1_198_0 + abs_W1_198_0 >= 0
 R794: - W1_198_1 + abs_W1_198_1 >= 0
 R795: W1_198_1 + abs_W1_198_1 >= 0
 R796: - W1_199_0 + abs_W1_199_0 >= 0
 R797: W1_199_0 + abs_W1_199_0 >= 0
 R798: - W1_199_1 + abs_W1_199_1 >= 0
 R799: W1_199_1 + abs_W1_199_1 >= 0
 R800: - W1_200_0 + abs_W1_200_0 >= 0
 R801: W1_200_0 + abs_W1_200_0 >= 0
 R802: - W1_200_1 + abs_W1_200_1 >= 0
 R803: W1_200_1 + abs_W1_200_1 >= 0
 R804: - W1_201_0 + abs_W1_201_0 >= 0
 R805: W1_201_0 + abs_W1_201_0 >= 0
 R806: - W1_201_1 + abs_W1_201_1 >= 0
 R807: W1_201_1 + abs_W1_201_1 >= 0
 R808: - W1_202_0 + abs_W1_202_0 >= 0
 R809: W1_202_0 + abs_W1_202_0 >= 0
 R810: - W1_202_1 + abs_W1_202_1 >= 0
 R811: W1_202_1 + abs_W1_202_1 >= 0
 R812: - W1_203_0 + abs_W1_203_0 >= 0
 R813: W1_203_0 + abs_W1_203_0 >= 0
 R814: - W1_203_1 + abs_W1_203_1 >= 0
 R815: W1_203_1 + abs_W1_203_1 >= 0
 R816: - W1_204_0 + abs_W1_204_0 >= 0
 R817: W1_204_0 + abs_W1_204_0 >= 0
 R818: - W1_204_1 + abs_W1_204_1 >= 0
 R819: W1_204_1 + abs_W1_204_1 >= 0
 R820: - W1_205_0 + abs_W1_205_0 >= 0
 R821: W1_205_0 + abs_W1_205_0 >= 0
 R822: - W1_205_1 + abs_W1_205_1 >= 0
 R823: W1_205_1 + abs_W1_205_1 >= 0
 R824: - W1_206_0 + abs_W1_206_0 >= 0
 R825: W1_206_0 + abs_W1_206_0 >= 0
 R826: - W1_206_1 + abs_W1_206_1 >= 0
 R827: W1_206_1 + abs_W1_206_1 >= 0
 R828: - W1_207_0 + abs_W1_207_0 >= 0
 R829: W1_207_0 + abs_W1_207_0 >= 0
 R830: - W1_207_1 + abs_W1_207_1 >= 0
 R831: W1_207_1 + abs_W1_207_1 >= 0
 R832: - W1_208_0 + abs_W1_208_0 >= 0
 R833: W1_208_0 + abs_W1_208_0 >= 0
 R834: - W1_208_1 + abs_W1_208_1 >= 0
 R835: W1_208_1 + abs_W1_208_1 >= 0
 R836: - W1_209_0 + abs_W1_209_0 >= 0
 R837: W1_209_0 + abs_W1_209_0 >= 0
 R838: - W1_209_1 + abs_W1_209_1 >= 0
 R839: W1_209_1 + abs_W1_209_1 >= 0
 R840: - W1_210_0 + abs_W1_210_0 >= 0
 R841: W1_210_0 + abs_W1_210_0 >= 0
 R842: - W1_210_1 + abs_W1_210_1 >= 0
 R843: W1_210_1 + abs_W1_210_1 >= 0
 R844: - W1_211_0 + abs_W1_211_0 >= 0
 R845: W1_211_0 + abs_W1_211_0 >= 0
 R846: - W1_211_1 + abs_W1_211_1 >= 0
 R847: W1_211_1 + abs_W1_211_1 >= 0
 R848: - W1_212_0 + abs_W1_212_0 >= 0
 R849: W1_212_0 + abs_W1_212_0 >= 0
 R850: - W1_212_1 + abs_W1_212_1 >= 0
 R851: W1_212_1 + abs_W1_212_1 >= 0
 R852: - W1_213_0 + abs_W1_213_0 >= 0
 R853: W1_213_0 + abs_W1_213_0 >= 0
 R854: - W1_213_1 + abs_W1_213_1 >= 0
 R855: W1_213_1 + abs_W1_213_1 >= 0
 R856: - W1_214_0 + abs_W1_214_0 >= 0
 R857: W1_214_0 + abs_W1_214_0 >= 0
 R858: - W1_214_1 + abs_W1_214_1 >= 0
 R859: W1_214_1 + abs_W1_214_1 >= 0
 R860: - W1_215_0 + abs_W1_215_0 >= 0
 R861: W1_215_0 + abs_W1_215_0 >= 0
 R862: - W1_215_1 + abs_W1_215_1 >= 0
 R863: W1_215_1 + abs_W1_215_1 >= 0
 R864: - W1_216_0 + abs_W1_216_0 >= 0
 R865: W1_216_0 + abs_W1_216_0 >= 0
 R866: - W1_216_1 + abs_W1_216_1 >= 0
 R867: W1_216_1 + abs_W1_216_1 >= 0
 R868: - W1_217_0 + abs_W1_217_0 >= 0
 R869: W1_217_0 + abs_W1_217_0 >= 0
 R870: - W1_217_1 + abs_W1_217_1 >= 0
 R871: W1_217_1 + abs_W1_217_1 >= 0
 R872: - W1_218_0 + abs_W1_218_0 >= 0
 R873: W1_218_0 + abs_W1_218_0 >= 0
 R874: - W1_218_1 + abs_W1_218_1 >= 0
 R875: W1_218_1 + abs_W1_218_1 >= 0
 R876: - W1_219_0 + abs_W1_219_0 >= 0
 R877: W1_219_0 + abs_W1_219_0 >= 0
 R878: - W1_219_1 + abs_W1_219_1 >= 0
 R879: W1_219_1 + abs_W1_219_1 >= 0
 R880: - W1_220_0 + abs_W1_220_0 >= 0
 R881: W1_220_0 + abs_W1_220_0 >= 0
 R882: - W1_220_1 + abs_W1_220_1 >= 0
 R883: W1_220_1 + abs_W1_220_1 >= 0
 R884: - W1_221_0 + abs_W1_221_0 >= 0
 R885: W1_221_0 + abs_W1_221_0 >= 0
 R886: - W1_221_1 + abs_W1_221_1 >= 0
 R887: W1_221_1 + abs_W1_221_1 >= 0
 R888: - W1_222_0 + abs_W1_222_0 >= 0
 R889: W1_222_0 + abs_W1_222_0 >= 0
 R890: - W1_222_1 + abs_W1_222_1 >= 0
 R891: W1_222_1 + abs_W1_222_1 >= 0
 R892: - W1_223_0 + abs_W1_223_0 >= 0
 R893: W1_223_0 + abs_W1_223_0 >= 0
 R894: - W1_223_1 + abs_W1_223_1 >= 0
 R895: W1_223_1 + abs_W1_223_1 >= 0
 R896: - W1_224_0 + abs_W1_224_0 >= 0
 R897: W1_224_0 + abs_W1_224_0 >= 0
 R898: - W1_224_1 + abs_W1_224_1 >= 0
 R899: W1_224_1 + abs_W1_224_1 >= 0
 R900: - W1_225_0 + abs_W1_225_0 >= 0
 R901: W1_225_0 + abs_W1_225_0 >= 0
 R902: - W1_225_1 + abs_W1_225_1 >= 0
 R903: W1_225_1 + abs_W1_225_1 >= 0
 R904: - W1_226_0 + abs_W1_226_0 >= 0
 R905: W1_226_0 + abs_W1_226_0 >= 0
 R906: - W1_226_1 + abs_W1_226_1 >= 0
 R907: W1_226_1 + abs_W1_226_1 >= 0
 R908: - W1_227_0 + abs_W1_227_0 >= 0
 R909: W1_227_0 + abs_W1_227_0 >= 0
 R910: - W1_227_1 + abs_W1_227_1 >= 0
 R911: W1_227_1 + abs_W1_227_1 >= 0
 R912: - W1_228_0 + abs_W1_228_0 >= 0
 R913: W1_228_0 + abs_W1_228_0 >= 0
 R914: - W1_228_1 + abs_W1_228_1 >= 0
 R915: W1_228_1 + abs_W1_228_1 >= 0
 R916: - W1_229_0 + abs_W1_229_0 >= 0
 R917: W1_229_0 + abs_W1_229_0 >= 0
 R918: - W1_229_1 + abs_W1_229_1 >= 0
 R919: W1_229_1 + abs_W1_229_1 >= 0
 R920: - W1_230_0 + abs_W1_230_0 >= 0
 R921: W1_230_0 + abs_W1_230_0 >= 0
 R922: - W1_230_1 + abs_W1_230_1 >= 0
 R923: W1_230_1 + abs_W1_230_1 >= 0
 R924: - W1_231_0 + abs_W1_231_0 >= 0
 R925: W1_231_0 + abs_W1_231_0 >= 0
 R926: - W1_231_1 + abs_W1_231_1 >= 0
 R927: W1_231_1 + abs_W1_231_1 >= 0
 R928: - W1_232_0 + abs_W1_232_0 >= 0
 R929: W1_232_0 + abs_W1_232_0 >= 0
 R930: - W1_232_1 + abs_W1_232_1 >= 0
 R931: W1_232_1 + abs_W1_232_1 >= 0
 R932: - W1_233_0 + abs_W1_233_0 >= 0
 R933: W1_233_0 + abs_W1_233_0 >= 0
 R934: - W1_233_1 + abs_W1_233_1 >= 0
 R935: W1_233_1 + abs_W1_233_1 >= 0
 R936: - W1_234_0 + abs_W1_234_0 >= 0
 R937: W1_234_0 + abs_W1_234_0 >= 0
 R938: - W1_234_1 + abs_W1_234_1 >= 0
 R939: W1_234_1 + abs_W1_234_1 >= 0
 R940: - W1_235_0 + abs_W1_235_0 >= 0
 R941: W1_235_0 + abs_W1_235_0 >= 0
 R942: - W1_235_1 + abs_W1_235_1 >= 0
 R943: W1_235_1 + abs_W1_235_1 >= 0
 R944: - W1_236_0 + abs_W1_236_0 >= 0
 R945: W1_236_0 + abs_W1_236_0 >= 0
 R946: - W1_236_1 + abs_W1_236_1 >= 0
 R947: W1_236_1 + abs_W1_236_1 >= 0
 R948: - W1_237_0 + abs_W1_237_0 >= 0
 R949: W1_237_0 + abs_W1_237_0 >= 0
 R950: - W1_237_1 + abs_W1_237_1 >= 0
 R951: W1_237_1 + abs_W1_237_1 >= 0
 R952: - W1_238_0 + abs_W1_238_0 >= 0
 R953: W1_238_0 + abs_W1_238_0 >= 0
 R954: - W1_238_1 + abs_W1_238_1 >= 0
 R955: W1_238_1 + abs_W1_238_1 >= 0
 R956: - W1_239_0 + abs_W1_239_0 >= 0
 R957: W1_239_0 + abs_W1_239_0 >= 0
 R958: - W1_239_1 + abs_W1_239_1 >= 0
 R959: W1_239_1 + abs_W1_239_1 >= 0
 R960: - W1_240_0 + abs_W1_240_0 >= 0
 R961: W1_240_0 + abs_W1_240_0 >= 0
 R962: - W1_240_1 + abs_W1_240_1 >= 0
 R963: W1_240_1 + abs_W1_240_1 >= 0
 R964: - W1_241_0 + abs_W1_241_0 >= 0
 R965: W1_241_0 + abs_W1_241_0 >= 0
 R966: - W1_241_1 + abs_W1_241_1 >= 0
 R967: W1_241_1 + abs_W1_241_1 >= 0
 R968: - W1_242_0 + abs_W1_242_0 >= 0
 R969: W1_242_0 + abs_W1_242_0 >= 0
 R970: - W1_242_1 + abs_W1_242_1 >= 0
 R971: W1_242_1 + abs_W1_242_1 >= 0
 R972: - W1_243_0 + abs_W1_243_0 >= 0
 R973: W1_243_0 + abs_W1_243_0 >= 0
 R974: - W1_243_1 + abs_W1_243_1 >= 0
 R975: W1_243_1 + abs_W1_243_1 >= 0
 R976: - W1_244_0 + abs_W1_244_0 >= 0
 R977: W1_244_0 + abs_W1_244_0 >= 0
 R978: - W1_244_1 + abs_W1_244_1 >= 0
 R979: W1_244_1 + abs_W1_244_1 >= 0
 R980: - W1_245_0 + abs_W1_245_0 >= 0
 R981: W1_245_0 + abs_W1_245_0 >= 0
 R982: - W1_245_1 + abs_W1_245_1 >= 0
 R983: W1_245_1 + abs_W1_245_1 >= 0
 R984: - W1_246_0 + abs_W1_246_0 >= 0
 R985: W1_246_0 + abs_W1_246_0 >= 0
 R986: - W1_246_1 + abs_W1_246_1 >= 0
 R987: W1_246_1 + abs_W1_246_1 >= 0
 R988: - W1_247_0 + abs_W1_247_0 >= 0
 R989: W1_247_0 + abs_W1_247_0 >= 0
 R990: - W1_247_1 + abs_W1_247_1 >= 0
 R991: W1_247_1 + abs_W1_247_1 >= 0
 R992: - W1_248_0 + abs_W1_248_0 >= 0
 R993: W1_248_0 + abs_W1_248_0 >= 0
 R994: - W1_248_1 + abs_W1_248_1 >= 0
 R995: W1_248_1 + abs_W1_248_1 >= 0
 R996: - W1_249_0 + abs_W1_249_0 >= 0
 R997: W1_249_0 + abs_W1_249_0 >= 0
 R998: - W1_249_1 + abs_W1_249_1 >= 0
 R999: W1_249_1 + abs_W1_249_1 >= 0
 R1000: - W1_250_0 + abs_W1_250_0 >= 0
 R1001: W1_250_0 + abs_W1_250_0 >= 0
 R1002: - W1_250_1 + abs_W1_250_1 >= 0
 R1003: W1_250_1 + abs_W1_250_1 >= 0
 R1004: - W1_251_0 + abs_W1_251_0 >= 0
 R1005: W1_251_0 + abs_W1_251_0 >= 0
 R1006: - W1_251_1 + abs_W1_251_1 >= 0
 R1007: W1_251_1 + abs_W1_251_1 >= 0
 R1008: - W1_252_0 + abs_W1_252_0 >= 0
 R1009: W1_252_0 + abs_W1_252_0 >= 0
 R1010: - W1_252_1 + abs_W1_252_1 >= 0
 R1011: W1_252_1 + abs_W1_252_1 >= 0
 R1012: - W1_253_0 + abs_W1_253_0 >= 0
 R1013: W1_253_0 + abs_W1_253_0 >= 0
 R1014: - W1_253_1 + abs_W1_253_1 >= 0
 R1015: W1_253_1 + abs_W1_253_1 >= 0
 R1016: - W1_254_0 + abs_W1_254_0 >= 0
 R1017: W1_254_0 + abs_W1_254_0 >= 0
 R1018: - W1_254_1 + abs_W1_254_1 >= 0
 R1019: W1_254_1 + abs_W1_254_1 >= 0
 R1020: - W1_255_0 + abs_W1_255_0 >= 0
 R1021: W1_255_0 + abs_W1_255_0 >= 0
 R1022: - W1_255_1 + abs_W1_255_1 >= 0
 R1023: W1_255_1 + abs_W1_255_1 >= 0
 R1024: - W1_256_0 + abs_W1_256_0 >= 0
 R1025: W1_256_0 + abs_W1_256_0 >= 0
 R1026: - W1_256_1 + abs_W1_256_1 >= 0
 R1027: W1_256_1 + abs_W1_256_1 >= 0
 R1028: - W1_257_0 + abs_W1_257_0 >= 0
 R1029: W1_257_0 + abs_W1_257_0 >= 0
 R1030: - W1_257_1 + abs_W1_257_1 >= 0
 R1031: W1_257_1 + abs_W1_257_1 >= 0
 R1032: - W1_258_0 + abs_W1_258_0 >= 0
 R1033: W1_258_0 + abs_W1_258_0 >= 0
 R1034: - W1_258_1 + abs_W1_258_1 >= 0
 R1035: W1_258_1 + abs_W1_258_1 >= 0
 R1036: - W1_259_0 + abs_W1_259_0 >= 0
 R1037: W1_259_0 + abs_W1_259_0 >= 0
 R1038: - W1_259_1 + abs_W1_259_1 >= 0
 R1039: W1_259_1 + abs_W1_259_1 >= 0
 R1040: - W1_260_0 + abs_W1_260_0 >= 0
 R1041: W1_260_0 + abs_W1_260_0 >= 0
 R1042: - W1_260_1 + abs_W1_260_1 >= 0
 R1043: W1_260_1 + abs_W1_260_1 >= 0
 R1044: - W1_261_0 + abs_W1_261_0 >= 0
 R1045: W1_261_0 + abs_W1_261_0 >= 0
 R1046: - W1_261_1 + abs_W1_261_1 >= 0
 R1047: W1_261_1 + abs_W1_261_1 >= 0
 R1048: - W1_262_0 + abs_W1_262_0 >= 0
 R1049: W1_262_0 + abs_W1_262_0 >= 0
 R1050: - W1_262_1 + abs_W1_262_1 >= 0
 R1051: W1_262_1 + abs_W1_262_1 >= 0
 R1052: - W1_263_0 + abs_W1_263_0 >= 0
 R1053: W1_263_0 + abs_W1_263_0 >= 0
 R1054: - W1_263_1 + abs_W1_263_1 >= 0
 R1055: W1_263_1 + abs_W1_263_1 >= 0
 R1056: - W1_264_0 + abs_W1_264_0 >= 0
 R1057: W1_264_0 + abs_W1_264_0 >= 0
 R1058: - W1_264_1 + abs_W1_264_1 >= 0
 R1059: W1_264_1 + abs_W1_264_1 >= 0
 R1060: - W1_265_0 + abs_W1_265_0 >= 0
 R1061: W1_265_0 + abs_W1_265_0 >= 0
 R1062: - W1_265_1 + abs_W1_265_1 >= 0
 R1063: W1_265_1 + abs_W1_265_1 >= 0
 R1064: - W1_266_0 + abs_W1_266_0 >= 0
 R1065: W1_266_0 + abs_W1_266_0 >= 0
 R1066: - W1_266_1 + abs_W1_266_1 >= 0
 R1067: W1_266_1 + abs_W1_266_1 >= 0
 R1068: - W1_267_0 + abs_W1_267_0 >= 0
 R1069: W1_267_0 + abs_W1_267_0 >= 0
 R1070: - W1_267_1 + abs_W1_267_1 >= 0
 R1071: W1_267_1 + abs_W1_267_1 >= 0
 R1072: - W1_268_0 + abs_W1_268_0 >= 0
 R1073: W1_268_0 + abs_W1_268_0 >= 0
 R1074: - W1_268_1 + abs_W1_268_1 >= 0
 R1075: W1_268_1 + abs_W1_268_1 >= 0
 R1076: - W1_269_0 + abs_W1_269_0 >= 0
 R1077: W1_269_0 + abs_W1_269_0 >= 0
 R1078: - W1_269_1 + abs_W1_269_1 >= 0
 R1079: W1_269_1 + abs_W1_269_1 >= 0
 R1080: - W1_270_0 + abs_W1_270_0 >= 0
 R1081: W1_270_0 + abs_W1_270_0 >= 0
 R1082: - W1_270_1 + abs_W1_270_1 >= 0
 R1083: W1_270_1 + abs_W1_270_1 >= 0
 R1084: - W1_271_0 + abs_W1_271_0 >= 0
 R1085: W1_271_0 + abs_W1_271_0 >= 0
 R1086: - W1_271_1 + abs_W1_271_1 >= 0
 R1087: W1_271_1 + abs_W1_271_1 >= 0
 R1088: - W1_272_0 + abs_W1_272_0 >= 0
 R1089: W1_272_0 + abs_W1_272_0 >= 0
 R1090: - W1_272_1 + abs_W1_272_1 >= 0
 R1091: W1_272_1 + abs_W1_272_1 >= 0
 R1092: - W1_273_0 + abs_W1_273_0 >= 0
 R1093: W1_273_0 + abs_W1_273_0 >= 0
 R1094: - W1_273_1 + abs_W1_273_1 >= 0
 R1095: W1_273_1 + abs_W1_273_1 >= 0
 R1096: - W1_274_0 + abs_W1_274_0 >= 0
 R1097: W1_274_0 + abs_W1_274_0 >= 0
 R1098: - W1_274_1 + abs_W1_274_1 >= 0
 R1099: W1_274_1 + abs_W1_274_1 >= 0
 R1100: - W1_275_0 + abs_W1_275_0 >= 0
 R1101: W1_275_0 + abs_W1_275_0 >= 0
 R1102: - W1_275_1 + abs_W1_275_1 >= 0
 R1103: W1_275_1 + abs_W1_275_1 >= 0
 R1104: - W1_276_0 + abs_W1_276_0 >= 0
 R1105: W1_276_0 + abs_W1_276_0 >= 0
 R1106: - W1_276_1 + abs_W1_276_1 >= 0
 R1107: W1_276_1 + abs_W1_276_1 >= 0
 R1108: - W1_277_0 + abs_W1_277_0 >= 0
 R1109: W1_277_0 + abs_W1_277_0 >= 0
 R1110: - W1_277_1 + abs_W1_277_1 >= 0
 R1111: W1_277_1 + abs_W1_277_1 >= 0
 R1112: - W1_278_0 + abs_W1_278_0 >= 0
 R1113: W1_278_0 + abs_W1_278_0 >= 0
 R1114: - W1_278_1 + abs_W1_278_1 >= 0
 R1115: W1_278_1 + abs_W1_278_1 >= 0
 R1116: - W1_279_0 + abs_W1_279_0 >= 0
 R1117: W1_279_0 + abs_W1_279_0 >= 0
 R1118: - W1_279_1 + abs_W1_279_1 >= 0
 R1119: W1_279_1 + abs_W1_279_1 >= 0
 R1120: - W1_280_0 + abs_W1_280_0 >= 0
 R1121: W1_280_0 + abs_W1_280_0 >= 0
 R1122: - W1_280_1 + abs_W1_280_1 >= 0
 R1123: W1_280_1 + abs_W1_280_1 >= 0
 R1124: - W1_281_0 + abs_W1_281_0 >= 0
 R1125: W1_281_0 + abs_W1_281_0 >= 0
 R1126: - W1_281_1 + abs_W1_281_1 >= 0
 R1127: W1_281_1 + abs_W1_281_1 >= 0
 R1128: - W1_282_0 + abs_W1_282_0 >= 0
 R1129: W1_282_0 + abs_W1_282_0 >= 0
 R1130: - W1_282_1 + abs_W1_282_1 >= 0
 R1131: W1_282_1 + abs_W1_282_1 >= 0
 R1132: - W1_283_0 + abs_W1_283_0 >= 0
 R1133: W1_283_0 + abs_W1_283_0 >= 0
 R1134: - W1_283_1 + abs_W1_283_1 >= 0
 R1135: W1_283_1 + abs_W1_283_1 >= 0
 R1136: - W1_284_0 + abs_W1_284_0 >= 0
 R1137: W1_284_0 + abs_W1_284_0 >= 0
 R1138: - W1_284_1 + abs_W1_284_1 >= 0
 R1139: W1_284_1 + abs_W1_284_1 >= 0
 R1140: - W1_285_0 + abs_W1_285_0 >= 0
 R1141: W1_285_0 + abs_W1_285_0 >= 0
 R1142: - W1_285_1 + abs_W1_285_1 >= 0
 R1143: W1_285_1 + abs_W1_285_1 >= 0
 R1144: - W1_286_0 + abs_W1_286_0 >= 0
 R1145: W1_286_0 + abs_W1_286_0 >= 0
 R1146: - W1_286_1 + abs_W1_286_1 >= 0
 R1147: W1_286_1 + abs_W1_286_1 >= 0
 R1148: - W1_287_0 + abs_W1_287_0 >= 0
 R1149: W1_287_0 + abs_W1_287_0 >= 0
 R1150: - W1_287_1 + abs_W1_287_1 >= 0
 R1151: W1_287_1 + abs_W1_287_1 >= 0
 R1152: - W1_288_0 + abs_W1_288_0 >= 0
 R1153: W1_288_0 + abs_W1_288_0 >= 0
 R1154: - W1_288_1 + abs_W1_288_1 >= 0
 R1155: W1_288_1 + abs_W1_288_1 >= 0
 R1156: - W1_289_0 + abs_W1_289_0 >= 0
 R1157: W1_289_0 + abs_W1_289_0 >= 0
 R1158: - W1_289_1 + abs_W1_289_1 >= 0
 R1159: W1_289_1 + abs_W1_289_1 >= 0
 R1160: - W1_290_0 + abs_W1_290_0 >= 0
 R1161: W1_290_0 + abs_W1_290_0 >= 0
 R1162: - W1_290_1 + abs_W1_290_1 >= 0
 R1163: W1_290_1 + abs_W1_290_1 >= 0
 R1164: - W1_291_0 + abs_W1_291_0 >= 0
 R1165: W1_291_0 + abs_W1_291_0 >= 0
 R1166: - W1_291_1 + abs_W1_291_1 >= 0
 R1167: W1_291_1 + abs_W1_291_1 >= 0
 R1168: - W1_292_0 + abs_W1_292_0 >= 0
 R1169: W1_292_0 + abs_W1_292_0 >= 0
 R1170: - W1_292_1 + abs_W1_292_1 >= 0
 R1171: W1_292_1 + abs_W1_292_1 >= 0
 R1172: - W1_293_0 + abs_W1_293_0 >= 0
 R1173: W1_293_0 + abs_W1_293_0 >= 0
 R1174: - W1_293_1 + abs_W1_293_1 >= 0
 R1175: W1_293_1 + abs_W1_293_1 >= 0
 R1176: - W1_294_0 + abs_W1_294_0 >= 0
 R1177: W1_294_0 + abs_W1_294_0 >= 0
 R1178: - W1_294_1 + abs_W1_294_1 >= 0
 R1179: W1_294_1 + abs_W1_294_1 >= 0
 R1180: - W1_295_0 + abs_W1_295_0 >= 0
 R1181: W1_295_0 + abs_W1_295_0 >= 0
 R1182: - W1_295_1 + abs_W1_295_1 >= 0
 R1183: W1_295_1 + abs_W1_295_1 >= 0
 R1184: - W1_296_0 + abs_W1_296_0 >= 0
 R1185: W1_296_0 + abs_W1_296_0 >= 0
 R1186: - W1_296_1 + abs_W1_296_1 >= 0
 R1187: W1_296_1 + abs_W1_296_1 >= 0
 R1188: - W1_297_0 + abs_W1_297_0 >= 0
 R1189: W1_297_0 + abs_W1_297_0 >= 0
 R1190: - W1_297_1 + abs_W1_297_1 >= 0
 R1191: W1_297_1 + abs_W1_297_1 >= 0
 R1192: - W1_298_0 + abs_W1_298_0 >= 0
 R1193: W1_298_0 + abs_W1_298_0 >= 0
 R1194: - W1_298_1 + abs_W1_298_1 >= 0
 R1195: W1_298_1 + abs_W1_298_1 >= 0
 R1196: - W1_299_0 + abs_W1_299_0 >= 0
 R1197: W1_299_0 + abs_W1_299_0 >= 0
 R1198: - W1_299_1 + abs_W1_299_1 >= 0
 R1199: W1_299_1 + abs_W1_299_1 >= 0
 R1200: - W1_300_0 + abs_W1_300_0 >= 0
 R1201: W1_300_0 + abs_W1_300_0 >= 0
 R1202: - W1_300_1 + abs_W1_300_1 >= 0
 R1203: W1_300_1 + abs_W1_300_1 >= 0
 R1204: - W1_301_0 + abs_W1_301_0 >= 0
 R1205: W1_301_0 + abs_W1_301_0 >= 0
 R1206: - W1_301_1 + abs_W1_301_1 >= 0
 R1207: W1_301_1 + abs_W1_301_1 >= 0
 R1208: - W1_302_0 + abs_W1_302_0 >= 0
 R1209: W1_302_0 + abs_W1_302_0 >= 0
 R1210: - W1_302_1 + abs_W1_302_1 >= 0
 R1211: W1_302_1 + abs_W1_302_1 >= 0
 R1212: - W1_303_0 + abs_W1_303_0 >= 0
 R1213: W1_303_0 + abs_W1_303_0 >= 0
 R1214: - W1_303_1 + abs_W1_303_1 >= 0
 R1215: W1_303_1 + abs_W1_303_1 >= 0
 R1216: - W1_304_0 + abs_W1_304_0 >= 0
 R1217: W1_304_0 + abs_W1_304_0 >= 0
 R1218: - W1_304_1 + abs_W1_304_1 >= 0
 R1219: W1_304_1 + abs_W1_304_1 >= 0
 R1220: - W1_305_0 + abs_W1_305_0 >= 0
 R1221: W1_305_0 + abs_W1_305_0 >= 0
 R1222: - W1_305_1 + abs_W1_305_1 >= 0
 R1223: W1_305_1 + abs_W1_305_1 >= 0
 R1224: - W1_306_0 + abs_W1_306_0 >= 0
 R1225: W1_306_0 + abs_W1_306_0 >= 0
 R1226: - W1_306_1 + abs_W1_306_1 >= 0
 R1227: W1_306_1 + abs_W1_306_1 >= 0
 R1228: - W1_307_0 + abs_W1_307_0 >= 0
 R1229: W1_307_0 + abs_W1_307_0 >= 0
 R1230: - W1_307_1 + abs_W1_307_1 >= 0
 R1231: W1_307_1 + abs_W1_307_1 >= 0
 R1232: - W1_308_0 + abs_W1_308_0 >= 0
 R1233: W1_308_0 + abs_W1_308_0 >= 0
 R1234: - W1_308_1 + abs_W1_308_1 >= 0
 R1235: W1_308_1 + abs_W1_308_1 >= 0
 R1236: - W1_309_0 + abs_W1_309_0 >= 0
 R1237: W1_309_0 + abs_W1_309_0 >= 0
 R1238: - W1_309_1 + abs_W1_309_1 >= 0
 R1239: W1_309_1 + abs_W1_309_1 >= 0
 R1240: - W1_310_0 + abs_W1_310_0 >= 0
 R1241: W1_310_0 + abs_W1_310_0 >= 0
 R1242: - W1_310_1 + abs_W1_310_1 >= 0
 R1243: W1_310_1 + abs_W1_310_1 >= 0
 R1244: - W1_311_0 + abs_W1_311_0 >= 0
 R1245: W1_311_0 + abs_W1_311_0 >= 0
 R1246: - W1_311_1 + abs_W1_311_1 >= 0
 R1247: W1_311_1 + abs_W1_311_1 >= 0
 R1248: - W1_312_0 + abs_W1_312_0 >= 0
 R1249: W1_312_0 + abs_W1_312_0 >= 0
 R1250: - W1_312_1 + abs_W1_312_1 >= 0
 R1251: W1_312_1 + abs_W1_312_1 >= 0
 R1252: - W1_313_0 + abs_W1_313_0 >= 0
 R1253: W1_313_0 + abs_W1_313_0 >= 0
 R1254: - W1_313_1 + abs_W1_313_1 >= 0
 R1255: W1_313_1 + abs_W1_313_1 >= 0
 R1256: - W1_314_0 + abs_W1_314_0 >= 0
 R1257: W1_314_0 + abs_W1_314_0 >= 0
 R1258: - W1_314_1 + abs_W1_314_1 >= 0
 R1259: W1_314_1 + abs_W1_314_1 >= 0
 R1260: - W1_315_0 + abs_W1_315_0 >= 0
 R1261: W1_315_0 + abs_W1_315_0 >= 0
 R1262: - W1_315_1 + abs_W1_315_1 >= 0
 R1263: W1_315_1 + abs_W1_315_1 >= 0
 R1264: - W1_316_0 + abs_W1_316_0 >= 0
 R1265: W1_316_0 + abs_W1_316_0 >= 0
 R1266: - W1_316_1 + abs_W1_316_1 >= 0
 R1267: W1_316_1 + abs_W1_316_1 >= 0
 R1268: - W1_317_0 + abs_W1_317_0 >= 0
 R1269: W1_317_0 + abs_W1_317_0 >= 0
 R1270: - W1_317_1 + abs_W1_317_1 >= 0
 R1271: W1_317_1 + abs_W1_317_1 >= 0
 R1272: - W1_318_0 + abs_W1_318_0 >= 0
 R1273: W1_318_0 + abs_W1_318_0 >= 0
 R1274: - W1_318_1 + abs_W1_318_1 >= 0
 R1275: W1_318_1 + abs_W1_318_1 >= 0
 R1276: - W1_319_0 + abs_W1_319_0 >= 0
 R1277: W1_319_0 + abs_W1_319_0 >= 0
 R1278: - W1_319_1 + abs_W1_319_1 >= 0
 R1279: W1_319_1 + abs_W1_319_1 >= 0
 R1280: - W1_320_0 + abs_W1_320_0 >= 0
 R1281: W1_320_0 + abs_W1_320_0 >= 0
 R1282: - W1_320_1 + abs_W1_320_1 >= 0
 R1283: W1_320_1 + abs_W1_320_1 >= 0
 R1284: - W1_321_0 + abs_W1_321_0 >= 0
 R1285: W1_321_0 + abs_W1_321_0 >= 0
 R1286: - W1_321_1 + abs_W1_321_1 >= 0
 R1287: W1_321_1 + abs_W1_321_1 >= 0
 R1288: - W1_322_0 + abs_W1_322_0 >= 0
 R1289: W1_322_0 + abs_W1_322_0 >= 0
 R1290: - W1_322_1 + abs_W1_322_1 >= 0
 R1291: W1_322_1 + abs_W1_322_1 >= 0
 R1292: - W1_323_0 + abs_W1_323_0 >= 0
 R1293: W1_323_0 + abs_W1_323_0 >= 0
 R1294: - W1_323_1 + abs_W1_323_1 >= 0
 R1295: W1_323_1 + abs_W1_323_1 >= 0
 R1296: - W1_324_0 + abs_W1_324_0 >= 0
 R1297: W1_324_0 + abs_W1_324_0 >= 0
 R1298: - W1_324_1 + abs_W1_324_1 >= 0
 R1299: W1_324_1 + abs_W1_324_1 >= 0
 R1300: - W1_325_0 + abs_W1_325_0 >= 0
 R1301: W1_325_0 + abs_W1_325_0 >= 0
 R1302: - W1_325_1 + abs_W1_325_1 >= 0
 R1303: W1_325_1 + abs_W1_325_1 >= 0
 R1304: - W1_326_0 + abs_W1_326_0 >= 0
 R1305: W1_326_0 + abs_W1_326_0 >= 0
 R1306: - W1_326_1 + abs_W1_326_1 >= 0
 R1307: W1_326_1 + abs_W1_326_1 >= 0
 R1308: - W1_327_0 + abs_W1_327_0 >= 0
 R1309: W1_327_0 + abs_W1_327_0 >= 0
 R1310: - W1_327_1 + abs_W1_327_1 >= 0
 R1311: W1_327_1 + abs_W1_327_1 >= 0
 R1312: - W1_328_0 + abs_W1_328_0 >= 0
 R1313: W1_328_0 + abs_W1_328_0 >= 0
 R1314: - W1_328_1 + abs_W1_328_1 >= 0
 R1315: W1_328_1 + abs_W1_328_1 >= 0
 R1316: - W1_329_0 + abs_W1_329_0 >= 0
 R1317: W1_329_0 + abs_W1_329_0 >= 0
 R1318: - W1_329_1 + abs_W1_329_1 >= 0
 R1319: W1_329_1 + abs_W1_329_1 >= 0
 R1320: - W1_330_0 + abs_W1_330_0 >= 0
 R1321: W1_330_0 + abs_W1_330_0 >= 0
 R1322: - W1_330_1 + abs_W1_330_1 >= 0
 R1323: W1_330_1 + abs_W1_330_1 >= 0
 R1324: - W1_331_0 + abs_W1_331_0 >= 0
 R1325: W1_331_0 + abs_W1_331_0 >= 0
 R1326: - W1_331_1 + abs_W1_331_1 >= 0
 R1327: W1_331_1 + abs_W1_331_1 >= 0
 R1328: - W1_332_0 + abs_W1_332_0 >= 0
 R1329: W1_332_0 + abs_W1_332_0 >= 0
 R1330: - W1_332_1 + abs_W1_332_1 >= 0
 R1331: W1_332_1 + abs_W1_332_1 >= 0
 R1332: - W1_333_0 + abs_W1_333_0 >= 0
 R1333: W1_333_0 + abs_W1_333_0 >= 0
 R1334: - W1_333_1 + abs_W1_333_1 >= 0
 R1335: W1_333_1 + abs_W1_333_1 >= 0
 R1336: - W1_334_0 + abs_W1_334_0 >= 0
 R1337: W1_334_0 + abs_W1_334_0 >= 0
 R1338: - W1_334_1 + abs_W1_334_1 >= 0
 R1339: W1_334_1 + abs_W1_334_1 >= 0
 R1340: - W1_335_0 + abs_W1_335_0 >= 0
 R1341: W1_335_0 + abs_W1_335_0 >= 0
 R1342: - W1_335_1 + abs_W1_335_1 >= 0
 R1343: W1_335_1 + abs_W1_335_1 >= 0
 R1344: - W1_336_0 + abs_W1_336_0 >= 0
 R1345: W1_336_0 + abs_W1_336_0 >= 0
 R1346: - W1_336_1 + abs_W1_336_1 >= 0
 R1347: W1_336_1 + abs_W1_336_1 >= 0
 R1348: - W1_337_0 + abs_W1_337_0 >= 0
 R1349: W1_337_0 + abs_W1_337_0 >= 0
 R1350: - W1_337_1 + abs_W1_337_1 >= 0
 R1351: W1_337_1 + abs_W1_337_1 >= 0
 R1352: - W1_338_0 + abs_W1_338_0 >= 0
 R1353: W1_338_0 + abs_W1_338_0 >= 0
 R1354: - W1_338_1 + abs_W1_338_1 >= 0
 R1355: W1_338_1 + abs_W1_338_1 >= 0
 R1356: - W1_339_0 + abs_W1_339_0 >= 0
 R1357: W1_339_0 + abs_W1_339_0 >= 0
 R1358: - W1_339_1 + abs_W1_339_1 >= 0
 R1359: W1_339_1 + abs_W1_339_1 >= 0
 R1360: - W1_340_0 + abs_W1_340_0 >= 0
 R1361: W1_340_0 + abs_W1_340_0 >= 0
 R1362: - W1_340_1 + abs_W1_340_1 >= 0
 R1363: W1_340_1 + abs_W1_340_1 >= 0
 R1364: - W1_341_0 + abs_W1_341_0 >= 0
 R1365: W1_341_0 + abs_W1_341_0 >= 0
 R1366: - W1_341_1 + abs_W1_341_1 >= 0
 R1367: W1_341_1 + abs_W1_341_1 >= 0
 R1368: - W1_342_0 + abs_W1_342_0 >= 0
 R1369: W1_342_0 + abs_W1_342_0 >= 0
 R1370: - W1_342_1 + abs_W1_342_1 >= 0
 R1371: W1_342_1 + abs_W1_342_1 >= 0
 R1372: - W1_343_0 + abs_W1_343_0 >= 0
 R1373: W1_343_0 + abs_W1_343_0 >= 0
 R1374: - W1_343_1 + abs_W1_343_1 >= 0
 R1375: W1_343_1 + abs_W1_343_1 >= 0
 R1376: - W1_344_0 + abs_W1_344_0 >= 0
 R1377: W1_344_0 + abs_W1_344_0 >= 0
 R1378: - W1_344_1 + abs_W1_344_1 >= 0
 R1379: W1_344_1 + abs_W1_344_1 >= 0
 R1380: - W1_345_0 + abs_W1_345_0 >= 0
 R1381: W1_345_0 + abs_W1_345_0 >= 0
 R1382: - W1_345_1 + abs_W1_345_1 >= 0
 R1383: W1_345_1 + abs_W1_345_1 >= 0
 R1384: - W1_346_0 + abs_W1_346_0 >= 0
 R1385: W1_346_0 + abs_W1_346_0 >= 0
 R1386: - W1_346_1 + abs_W1_346_1 >= 0
 R1387: W1_346_1 + abs_W1_346_1 >= 0
 R1388: - W1_347_0 + abs_W1_347_0 >= 0
 R1389: W1_347_0 + abs_W1_347_0 >= 0
 R1390: - W1_347_1 + abs_W1_347_1 >= 0
 R1391: W1_347_1 + abs_W1_347_1 >= 0
 R1392: - W1_348_0 + abs_W1_348_0 >= 0
 R1393: W1_348_0 + abs_W1_348_0 >= 0
 R1394: - W1_348_1 + abs_W1_348_1 >= 0
 R1395: W1_348_1 + abs_W1_348_1 >= 0
 R1396: - W1_349_0 + abs_W1_349_0 >= 0
 R1397: W1_349_0 + abs_W1_349_0 >= 0
 R1398: - W1_349_1 + abs_W1_349_1 >= 0
 R1399: W1_349_1 + abs_W1_349_1 >= 0
 R1400: - W1_350_0 + abs_W1_350_0 >= 0
 R1401: W1_350_0 + abs_W1_350_0 >= 0
 R1402: - W1_350_1 + abs_W1_350_1 >= 0
 R1403: W1_350_1 + abs_W1_350_1 >= 0
 R1404: - W1_351_0 + abs_W1_351_0 >= 0
 R1405: W1_351_0 + abs_W1_351_0 >= 0
 R1406: - W1_351_1 + abs_W1_351_1 >= 0
 R1407: W1_351_1 + abs_W1_351_1 >= 0
 R1408: - W1_352_0 + abs_W1_352_0 >= 0
 R1409: W1_352_0 + abs_W1_352_0 >= 0
 R1410: - W1_352_1 + abs_W1_352_1 >= 0
 R1411: W1_352_1 + abs_W1_352_1 >= 0
 R1412: - W1_353_0 + abs_W1_353_0 >= 0
 R1413: W1_353_0 + abs_W1_353_0 >= 0
 R1414: - W1_353_1 + abs_W1_353_1 >= 0
 R1415: W1_353_1 + abs_W1_353_1 >= 0
 R1416: - W1_354_0 + abs_W1_354_0 >= 0
 R1417: W1_354_0 + abs_W1_354_0 >= 0
 R1418: - W1_354_1 + abs_W1_354_1 >= 0
 R1419: W1_354_1 + abs_W1_354_1 >= 0
 R1420: - W1_355_0 + abs_W1_355_0 >= 0
 R1421: W1_355_0 + abs_W1_355_0 >= 0
 R1422: - W1_355_1 + abs_W1_355_1 >= 0
 R1423: W1_355_1 + abs_W1_355_1 >= 0
 R1424: - W1_356_0 + abs_W1_356_0 >= 0
 R1425: W1_356_0 + abs_W1_356_0 >= 0
 R1426: - W1_356_1 + abs_W1_356_1 >= 0
 R1427: W1_356_1 + abs_W1_356_1 >= 0
 R1428: - W1_357_0 + abs_W1_357_0 >= 0
 R1429: W1_357_0 + abs_W1_357_0 >= 0
 R1430: - W1_357_1 + abs_W1_357_1 >= 0
 R1431: W1_357_1 + abs_W1_357_1 >= 0
 R1432: - W1_358_0 + abs_W1_358_0 >= 0
 R1433: W1_358_0 + abs_W1_358_0 >= 0
 R1434: - W1_358_1 + abs_W1_358_1 >= 0
 R1435: W1_358_1 + abs_W1_358_1 >= 0
 R1436: - W1_359_0 + abs_W1_359_0 >= 0
 R1437: W1_359_0 + abs_W1_359_0 >= 0
 R1438: - W1_359_1 + abs_W1_359_1 >= 0
 R1439: W1_359_1 + abs_W1_359_1 >= 0
 R1440: - W1_360_0 + abs_W1_360_0 >= 0
 R1441: W1_360_0 + abs_W1_360_0 >= 0
 R1442: - W1_360_1 + abs_W1_360_1 >= 0
 R1443: W1_360_1 + abs_W1_360_1 >= 0
 R1444: - W1_361_0 + abs_W1_361_0 >= 0
 R1445: W1_361_0 + abs_W1_361_0 >= 0
 R1446: - W1_361_1 + abs_W1_361_1 >= 0
 R1447: W1_361_1 + abs_W1_361_1 >= 0
 R1448: - W1_362_0 + abs_W1_362_0 >= 0
 R1449: W1_362_0 + abs_W1_362_0 >= 0
 R1450: - W1_362_1 + abs_W1_362_1 >= 0
 R1451: W1_362_1 + abs_W1_362_1 >= 0
 R1452: - W1_363_0 + abs_W1_363_0 >= 0
 R1453: W1_363_0 + abs_W1_363_0 >= 0
 R1454: - W1_363_1 + abs_W1_363_1 >= 0
 R1455: W1_363_1 + abs_W1_363_1 >= 0
 R1456: - W1_364_0 + abs_W1_364_0 >= 0
 R1457: W1_364_0 + abs_W1_364_0 >= 0
 R1458: - W1_364_1 + abs_W1_364_1 >= 0
 R1459: W1_364_1 + abs_W1_364_1 >= 0
 R1460: - W1_365_0 + abs_W1_365_0 >= 0
 R1461: W1_365_0 + abs_W1_365_0 >= 0
 R1462: - W1_365_1 + abs_W1_365_1 >= 0
 R1463: W1_365_1 + abs_W1_365_1 >= 0
 R1464: - W1_366_0 + abs_W1_366_0 >= 0
 R1465: W1_366_0 + abs_W1_366_0 >= 0
 R1466: - W1_366_1 + abs_W1_366_1 >= 0
 R1467: W1_366_1 + abs_W1_366_1 >= 0
 R1468: - W1_367_0 + abs_W1_367_0 >= 0
 R1469: W1_367_0 + abs_W1_367_0 >= 0
 R1470: - W1_367_1 + abs_W1_367_1 >= 0
 R1471: W1_367_1 + abs_W1_367_1 >= 0
 R1472: - W1_368_0 + abs_W1_368_0 >= 0
 R1473: W1_368_0 + abs_W1_368_0 >= 0
 R1474: - W1_368_1 + abs_W1_368_1 >= 0
 R1475: W1_368_1 + abs_W1_368_1 >= 0
 R1476: - W1_369_0 + abs_W1_369_0 >= 0
 R1477: W1_369_0 + abs_W1_369_0 >= 0
 R1478: - W1_369_1 + abs_W1_369_1 >= 0
 R1479: W1_369_1 + abs_W1_369_1 >= 0
 R1480: - W1_370_0 + abs_W1_370_0 >= 0
 R1481: W1_370_0 + abs_W1_370_0 >= 0
 R1482: - W1_370_1 + abs_W1_370_1 >= 0
 R1483: W1_370_1 + abs_W1_370_1 >= 0
 R1484: - W1_371_0 + abs_W1_371_0 >= 0
 R1485: W1_371_0 + abs_W1_371_0 >= 0
 R1486: - W1_371_1 + abs_W1_371_1 >= 0
 R1487: W1_371_1 + abs_W1_371_1 >= 0
 R1488: - W1_372_0 + abs_W1_372_0 >= 0
 R1489: W1_372_0 + abs_W1_372_0 >= 0
 R1490: - W1_372_1 + abs_W1_372_1 >= 0
 R1491: W1_372_1 + abs_W1_372_1 >= 0
 R1492: - W1_373_0 + abs_W1_373_0 >= 0
 R1493: W1_373_0 + abs_W1_373_0 >= 0
 R1494: - W1_373_1 + abs_W1_373_1 >= 0
 R1495: W1_373_1 + abs_W1_373_1 >= 0
 R1496: - W1_374_0 + abs_W1_374_0 >= 0
 R1497: W1_374_0 + abs_W1_374_0 >= 0
 R1498: - W1_374_1 + abs_W1_374_1 >= 0
 R1499: W1_374_1 + abs_W1_374_1 >= 0
 R1500: - W1_375_0 + abs_W1_375_0 >= 0
 R1501: W1_375_0 + abs_W1_375_0 >= 0
 R1502: - W1_375_1 + abs_W1_375_1 >= 0
 R1503: W1_375_1 + abs_W1_375_1 >= 0
 R1504: - W1_376_0 + abs_W1_376_0 >= 0
 R1505: W1_376_0 + abs_W1_376_0 >= 0
 R1506: - W1_376_1 + abs_W1_376_1 >= 0
 R1507: W1_376_1 + abs_W1_376_1 >= 0
 R1508: - W1_377_0 + abs_W1_377_0 >= 0
 R1509: W1_377_0 + abs_W1_377_0 >= 0
 R1510: - W1_377_1 + abs_W1_377_1 >= 0
 R1511: W1_377_1 + abs_W1_377_1 >= 0
 R1512: - W1_378_0 + abs_W1_378_0 >= 0
 R1513: W1_378_0 + abs_W1_378_0 >= 0
 R1514: - W1_378_1 + abs_W1_378_1 >= 0
 R1515: W1_378_1 + abs_W1_378_1 >= 0
 R1516: - W1_379_0 + abs_W1_379_0 >= 0
 R1517: W1_379_0 + abs_W1_379_0 >= 0
 R1518: - W1_379_1 + abs_W1_379_1 >= 0
 R1519: W1_379_1 + abs_W1_379_1 >= 0
 R1520: - W1_380_0 + abs_W1_380_0 >= 0
 R1521: W1_380_0 + abs_W1_380_0 >= 0
 R1522: - W1_380_1 + abs_W1_380_1 >= 0
 R1523: W1_380_1 + abs_W1_380_1 >= 0
 R1524: - W1_381_0 + abs_W1_381_0 >= 0
 R1525: W1_381_0 + abs_W1_381_0 >= 0
 R1526: - W1_381_1 + abs_W1_381_1 >= 0
 R1527: W1_381_1 + abs_W1_381_1 >= 0
 R1528: - W1_382_0 + abs_W1_382_0 >= 0
 R1529: W1_382_0 + abs_W1_382_0 >= 0
 R1530: - W1_382_1 + abs_W1_382_1 >= 0
 R1531: W1_382_1 + abs_W1_382_1 >= 0
 R1532: - W1_383_0 + abs_W1_383_0 >= 0
 R1533: W1_383_0 + abs_W1_383_0 >= 0
 R1534: - W1_383_1 + abs_W1_383_1 >= 0
 R1535: W1_383_1 + abs_W1_383_1 >= 0
 R1536: - W1_384_0 + abs_W1_384_0 >= 0
 R1537: W1_384_0 + abs_W1_384_0 >= 0
 R1538: - W1_384_1 + abs_W1_384_1 >= 0
 R1539: W1_384_1 + abs_W1_384_1 >= 0
 R1540: - W1_385_0 + abs_W1_385_0 >= 0
 R1541: W1_385_0 + abs_W1_385_0 >= 0
 R1542: - W1_385_1 + abs_W1_385_1 >= 0
 R1543: W1_385_1 + abs_W1_385_1 >= 0
 R1544: - W1_386_0 + abs_W1_386_0 >= 0
 R1545: W1_386_0 + abs_W1_386_0 >= 0
 R1546: - W1_386_1 + abs_W1_386_1 >= 0
 R1547: W1_386_1 + abs_W1_386_1 >= 0
 R1548: - W1_387_0 + abs_W1_387_0 >= 0
 R1549: W1_387_0 + abs_W1_387_0 >= 0
 R1550: - W1_387_1 + abs_W1_387_1 >= 0
 R1551: W1_387_1 + abs_W1_387_1 >= 0
 R1552: - W1_388_0 + abs_W1_388_0 >= 0
 R1553: W1_388_0 + abs_W1_388_0 >= 0
 R1554: - W1_388_1 + abs_W1_388_1 >= 0
 R1555: W1_388_1 + abs_W1_388_1 >= 0
 R1556: - W1_389_0 + abs_W1_389_0 >= 0
 R1557: W1_389_0 + abs_W1_389_0 >= 0
 R1558: - W1_389_1 + abs_W1_389_1 >= 0
 R1559: W1_389_1 + abs_W1_389_1 >= 0
 R1560: - W1_390_0 + abs_W1_390_0 >= 0
 R1561: W1_390_0 + abs_W1_390_0 >= 0
 R1562: - W1_390_1 + abs_W1_390_1 >= 0
 R1563: W1_390_1 + abs_W1_390_1 >= 0
 R1564: - W1_391_0 + abs_W1_391_0 >= 0
 R1565: W1_391_0 + abs_W1_391_0 >= 0
 R1566: - W1_391_1 + abs_W1_391_1 >= 0
 R1567: W1_391_1 + abs_W1_391_1 >= 0
 R1568: - W1_392_0 + abs_W1_392_0 >= 0
 R1569: W1_392_0 + abs_W1_392_0 >= 0
 R1570: - W1_392_1 + abs_W1_392_1 >= 0
 R1571: W1_392_1 + abs_W1_392_1 >= 0
 R1572: - W1_393_0 + abs_W1_393_0 >= 0
 R1573: W1_393_0 + abs_W1_393_0 >= 0
 R1574: - W1_393_1 + abs_W1_393_1 >= 0
 R1575: W1_393_1 + abs_W1_393_1 >= 0
 R1576: - W1_394_0 + abs_W1_394_0 >= 0
 R1577: W1_394_0 + abs_W1_394_0 >= 0
 R1578: - W1_394_1 + abs_W1_394_1 >= 0
 R1579: W1_394_1 + abs_W1_394_1 >= 0
 R1580: - W1_395_0 + abs_W1_395_0 >= 0
 R1581: W1_395_0 + abs_W1_395_0 >= 0
 R1582: - W1_395_1 + abs_W1_395_1 >= 0
 R1583: W1_395_1 + abs_W1_395_1 >= 0
 R1584: - W1_396_0 + abs_W1_396_0 >= 0
 R1585: W1_396_0 + abs_W1_396_0 >= 0
 R1586: - W1_396_1 + abs_W1_396_1 >= 0
 R1587: W1_396_1 + abs_W1_396_1 >= 0
 R1588: - W1_397_0 + abs_W1_397_0 >= 0
 R1589: W1_397_0 + abs_W1_397_0 >= 0
 R1590: - W1_397_1 + abs_W1_397_1 >= 0
 R1591: W1_397_1 + abs_W1_397_1 >= 0
 R1592: - W1_398_0 + abs_W1_398_0 >= 0
 R1593: W1_398_0 + abs_W1_398_0 >= 0
 R1594: - W1_398_1 + abs_W1_398_1 >= 0
 R1595: W1_398_1 + abs_W1_398_1 >= 0
 R1596: - W1_399_0 + abs_W1_399_0 >= 0
 R1597: W1_399_0 + abs_W1_399_0 >= 0
 R1598: - W1_399_1 + abs_W1_399_1 >= 0
 R1599: W1_399_1 + abs_W1_399_1 >= 0
 R1600: - W1_400_0 + abs_W1_400_0 >= 0
 R1601: W1_400_0 + abs_W1_400_0 >= 0
 R1602: - W1_400_1 + abs_W1_400_1 >= 0
 R1603: W1_400_1 + abs_W1_400_1 >= 0
 R1604: - W1_401_0 + abs_W1_401_0 >= 0
 R1605: W1_401_0 + abs_W1_401_0 >= 0
 R1606: - W1_401_1 + abs_W1_401_1 >= 0
 R1607: W1_401_1 + abs_W1_401_1 >= 0
 R1608: - W1_402_0 + abs_W1_402_0 >= 0
 R1609: W1_402_0 + abs_W1_402_0 >= 0
 R1610: - W1_402_1 + abs_W1_402_1 >= 0
 R1611: W1_402_1 + abs_W1_402_1 >= 0
 R1612: - W1_403_0 + abs_W1_403_0 >= 0
 R1613: W1_403_0 + abs_W1_403_0 >= 0
 R1614: - W1_403_1 + abs_W1_403_1 >= 0
 R1615: W1_403_1 + abs_W1_403_1 >= 0
 R1616: - W1_404_0 + abs_W1_404_0 >= 0
 R1617: W1_404_0 + abs_W1_404_0 >= 0
 R1618: - W1_404_1 + abs_W1_404_1 >= 0
 R1619: W1_404_1 + abs_W1_404_1 >= 0
 R1620: - W1_405_0 + abs_W1_405_0 >= 0
 R1621: W1_405_0 + abs_W1_405_0 >= 0
 R1622: - W1_405_1 + abs_W1_405_1 >= 0
 R1623: W1_405_1 + abs_W1_405_1 >= 0
 R1624: - W1_406_0 + abs_W1_406_0 >= 0
 R1625: W1_406_0 + abs_W1_406_0 >= 0
 R1626: - W1_406_1 + abs_W1_406_1 >= 0
 R1627: W1_406_1 + abs_W1_406_1 >= 0
 R1628: - W1_407_0 + abs_W1_407_0 >= 0
 R1629: W1_407_0 + abs_W1_407_0 >= 0
 R1630: - W1_407_1 + abs_W1_407_1 >= 0
 R1631: W1_407_1 + abs_W1_407_1 >= 0
 R1632: - W1_408_0 + abs_W1_408_0 >= 0
 R1633: W1_408_0 + abs_W1_408_0 >= 0
 R1634: - W1_408_1 + abs_W1_408_1 >= 0
 R1635: W1_408_1 + abs_W1_408_1 >= 0
 R1636: - W1_409_0 + abs_W1_409_0 >= 0
 R1637: W1_409_0 + abs_W1_409_0 >= 0
 R1638: - W1_409_1 + abs_W1_409_1 >= 0
 R1639: W1_409_1 + abs_W1_409_1 >= 0
 R1640: - W1_410_0 + abs_W1_410_0 >= 0
 R1641: W1_410_0 + abs_W1_410_0 >= 0
 R1642: - W1_410_1 + abs_W1_410_1 >= 0
 R1643: W1_410_1 + abs_W1_410_1 >= 0
 R1644: - W1_411_0 + abs_W1_411_0 >= 0
 R1645: W1_411_0 + abs_W1_411_0 >= 0
 R1646: - W1_411_1 + abs_W1_411_1 >= 0
 R1647: W1_411_1 + abs_W1_411_1 >= 0
 R1648: - W1_412_0 + abs_W1_412_0 >= 0
 R1649: W1_412_0 + abs_W1_412_0 >= 0
 R1650: - W1_412_1 + abs_W1_412_1 >= 0
 R1651: W1_412_1 + abs_W1_412_1 >= 0
 R1652: - W1_413_0 + abs_W1_413_0 >= 0
 R1653: W1_413_0 + abs_W1_413_0 >= 0
 R1654: - W1_413_1 + abs_W1_413_1 >= 0
 R1655: W1_413_1 + abs_W1_413_1 >= 0
 R1656: - W1_414_0 + abs_W1_414_0 >= 0
 R1657: W1_414_0 + abs_W1_414_0 >= 0
 R1658: - W1_414_1 + abs_W1_414_1 >= 0
 R1659: W1_414_1 + abs_W1_414_1 >= 0
 R1660: - W1_415_0 + abs_W1_415_0 >= 0
 R1661: W1_415_0 + abs_W1_415_0 >= 0
 R1662: - W1_415_1 + abs_W1_415_1 >= 0
 R1663: W1_415_1 + abs_W1_415_1 >= 0
 R1664: - W1_416_0 + abs_W1_416_0 >= 0
 R1665: W1_416_0 + abs_W1_416_0 >= 0
 R1666: - W1_416_1 + abs_W1_416_1 >= 0
 R1667: W1_416_1 + abs_W1_416_1 >= 0
 R1668: - W1_417_0 + abs_W1_417_0 >= 0
 R1669: W1_417_0 + abs_W1_417_0 >= 0
 R1670: - W1_417_1 + abs_W1_417_1 >= 0
 R1671: W1_417_1 + abs_W1_417_1 >= 0
 R1672: - W1_418_0 + abs_W1_418_0 >= 0
 R1673: W1_418_0 + abs_W1_418_0 >= 0
 R1674: - W1_418_1 + abs_W1_418_1 >= 0
 R1675: W1_418_1 + abs_W1_418_1 >= 0
 R1676: - W1_419_0 + abs_W1_419_0 >= 0
 R1677: W1_419_0 + abs_W1_419_0 >= 0
 R1678: - W1_419_1 + abs_W1_419_1 >= 0
 R1679: W1_419_1 + abs_W1_419_1 >= 0
 R1680: - W1_420_0 + abs_W1_420_0 >= 0
 R1681: W1_420_0 + abs_W1_420_0 >= 0
 R1682: - W1_420_1 + abs_W1_420_1 >= 0
 R1683: W1_420_1 + abs_W1_420_1 >= 0
 R1684: - W1_421_0 + abs_W1_421_0 >= 0
 R1685: W1_421_0 + abs_W1_421_0 >= 0
 R1686: - W1_421_1 + abs_W1_421_1 >= 0
 R1687: W1_421_1 + abs_W1_421_1 >= 0
 R1688: - W1_422_0 + abs_W1_422_0 >= 0
 R1689: W1_422_0 + abs_W1_422_0 >= 0
 R1690: - W1_422_1 + abs_W1_422_1 >= 0
 R1691: W1_422_1 + abs_W1_422_1 >= 0
 R1692: - W1_423_0 + abs_W1_423_0 >= 0
 R1693: W1_423_0 + abs_W1_423_0 >= 0
 R1694: - W1_423_1 + abs_W1_423_1 >= 0
 R1695: W1_423_1 + abs_W1_423_1 >= 0
 R1696: - W1_424_0 + abs_W1_424_0 >= 0
 R1697: W1_424_0 + abs_W1_424_0 >= 0
 R1698: - W1_424_1 + abs_W1_424_1 >= 0
 R1699: W1_424_1 + abs_W1_424_1 >= 0
 R1700: - W1_425_0 + abs_W1_425_0 >= 0
 R1701: W1_425_0 + abs_W1_425_0 >= 0
 R1702: - W1_425_1 + abs_W1_425_1 >= 0
 R1703: W1_425_1 + abs_W1_425_1 >= 0
 R1704: - W1_426_0 + abs_W1_426_0 >= 0
 R1705: W1_426_0 + abs_W1_426_0 >= 0
 R1706: - W1_426_1 + abs_W1_426_1 >= 0
 R1707: W1_426_1 + abs_W1_426_1 >= 0
 R1708: - W1_427_0 + abs_W1_427_0 >= 0
 R1709: W1_427_0 + abs_W1_427_0 >= 0
 R1710: - W1_427_1 + abs_W1_427_1 >= 0
 R1711: W1_427_1 + abs_W1_427_1 >= 0
 R1712: - W1_428_0 + abs_W1_428_0 >= 0
 R1713: W1_428_0 + abs_W1_428_0 >= 0
 R1714: - W1_428_1 + abs_W1_428_1 >= 0
 R1715: W1_428_1 + abs_W1_428_1 >= 0
 R1716: - W1_429_0 + abs_W1_429_0 >= 0
 R1717: W1_429_0 + abs_W1_429_0 >= 0
 R1718: - W1_429_1 + abs_W1_429_1 >= 0
 R1719: W1_429_1 + abs_W1_429_1 >= 0
 R1720: - W1_430_0 + abs_W1_430_0 >= 0
 R1721: W1_430_0 + abs_W1_430_0 >= 0
 R1722: - W1_430_1 + abs_W1_430_1 >= 0
 R1723: W1_430_1 + abs_W1_430_1 >= 0
 R1724: - W1_431_0 + abs_W1_431_0 >= 0
 R1725: W1_431_0 + abs_W1_431_0 >= 0
 R1726: - W1_431_1 + abs_W1_431_1 >= 0
 R1727: W1_431_1 + abs_W1_431_1 >= 0
 R1728: - W1_432_0 + abs_W1_432_0 >= 0
 R1729: W1_432_0 + abs_W1_432_0 >= 0
 R1730: - W1_432_1 + abs_W1_432_1 >= 0
 R1731: W1_432_1 + abs_W1_432_1 >= 0
 R1732: - W1_433_0 + abs_W1_433_0 >= 0
 R1733: W1_433_0 + abs_W1_433_0 >= 0
 R1734: - W1_433_1 + abs_W1_433_1 >= 0
 R1735: W1_433_1 + abs_W1_433_1 >= 0
 R1736: - W1_434_0 + abs_W1_434_0 >= 0
 R1737: W1_434_0 + abs_W1_434_0 >= 0
 R1738: - W1_434_1 + abs_W1_434_1 >= 0
 R1739: W1_434_1 + abs_W1_434_1 >= 0
 R1740: - W1_435_0 + abs_W1_435_0 >= 0
 R1741: W1_435_0 + abs_W1_435_0 >= 0
 R1742: - W1_435_1 + abs_W1_435_1 >= 0
 R1743: W1_435_1 + abs_W1_435_1 >= 0
 R1744: - W1_436_0 + abs_W1_436_0 >= 0
 R1745: W1_436_0 + abs_W1_436_0 >= 0
 R1746: - W1_436_1 + abs_W1_436_1 >= 0
 R1747: W1_436_1 + abs_W1_436_1 >= 0
 R1748: - W1_437_0 + abs_W1_437_0 >= 0
 R1749: W1_437_0 + abs_W1_437_0 >= 0
 R1750: - W1_437_1 + abs_W1_437_1 >= 0
 R1751: W1_437_1 + abs_W1_437_1 >= 0
 R1752: - W1_438_0 + abs_W1_438_0 >= 0
 R1753: W1_438_0 + abs_W1_438_0 >= 0
 R1754: - W1_438_1 + abs_W1_438_1 >= 0
 R1755: W1_438_1 + abs_W1_438_1 >= 0
 R1756: - W1_439_0 + abs_W1_439_0 >= 0
 R1757: W1_439_0 + abs_W1_439_0 >= 0
 R1758: - W1_439_1 + abs_W1_439_1 >= 0
 R1759: W1_439_1 + abs_W1_439_1 >= 0
 R1760: - W1_440_0 + abs_W1_440_0 >= 0
 R1761: W1_440_0 + abs_W1_440_0 >= 0
 R1762: - W1_440_1 + abs_W1_440_1 >= 0
 R1763: W1_440_1 + abs_W1_440_1 >= 0
 R1764: - W1_441_0 + abs_W1_441_0 >= 0
 R1765: W1_441_0 + abs_W1_441_0 >= 0
 R1766: - W1_441_1 + abs_W1_441_1 >= 0
 R1767: W1_441_1 + abs_W1_441_1 >= 0
 R1768: - W1_442_0 + abs_W1_442_0 >= 0
 R1769: W1_442_0 + abs_W1_442_0 >= 0
 R1770: - W1_442_1 + abs_W1_442_1 >= 0
 R1771: W1_442_1 + abs_W1_442_1 >= 0
 R1772: - W1_443_0 + abs_W1_443_0 >= 0
 R1773: W1_443_0 + abs_W1_443_0 >= 0
 R1774: - W1_443_1 + abs_W1_443_1 >= 0
 R1775: W1_443_1 + abs_W1_443_1 >= 0
 R1776: - W1_444_0 + abs_W1_444_0 >= 0
 R1777: W1_444_0 + abs_W1_444_0 >= 0
 R1778: - W1_444_1 + abs_W1_444_1 >= 0
 R1779: W1_444_1 + abs_W1_444_1 >= 0
 R1780: - W1_445_0 + abs_W1_445_0 >= 0
 R1781: W1_445_0 + abs_W1_445_0 >= 0
 R1782: - W1_445_1 + abs_W1_445_1 >= 0
 R1783: W1_445_1 + abs_W1_445_1 >= 0
 R1784: - W1_446_0 + abs_W1_446_0 >= 0
 R1785: W1_446_0 + abs_W1_446_0 >= 0
 R1786: - W1_446_1 + abs_W1_446_1 >= 0
 R1787: W1_446_1 + abs_W1_446_1 >= 0
 R1788: - W1_447_0 + abs_W1_447_0 >= 0
 R1789: W1_447_0 + abs_W1_447_0 >= 0
 R1790: - W1_447_1 + abs_W1_447_1 >= 0
 R1791: W1_447_1 + abs_W1_447_1 >= 0
 R1792: - W1_448_0 + abs_W1_448_0 >= 0
 R1793: W1_448_0 + abs_W1_448_0 >= 0
 R1794: - W1_448_1 + abs_W1_448_1 >= 0
 R1795: W1_448_1 + abs_W1_448_1 >= 0
 R1796: - W1_449_0 + abs_W1_449_0 >= 0
 R1797: W1_449_0 + abs_W1_449_0 >= 0
 R1798: - W1_449_1 + abs_W1_449_1 >= 0
 R1799: W1_449_1 + abs_W1_449_1 >= 0
 R1800: - W1_450_0 + abs_W1_450_0 >= 0
 R1801: W1_450_0 + abs_W1_450_0 >= 0
 R1802: - W1_450_1 + abs_W1_450_1 >= 0
 R1803: W1_450_1 + abs_W1_450_1 >= 0
 R1804: - W1_451_0 + abs_W1_451_0 >= 0
 R1805: W1_451_0 + abs_W1_451_0 >= 0
 R1806: - W1_451_1 + abs_W1_451_1 >= 0
 R1807: W1_451_1 + abs_W1_451_1 >= 0
 R1808: - W1_452_0 + abs_W1_452_0 >= 0
 R1809: W1_452_0 + abs_W1_452_0 >= 0
 R1810: - W1_452_1 + abs_W1_452_1 >= 0
 R1811: W1_452_1 + abs_W1_452_1 >= 0
 R1812: - W1_453_0 + abs_W1_453_0 >= 0
 R1813: W1_453_0 + abs_W1_453_0 >= 0
 R1814: - W1_453_1 + abs_W1_453_1 >= 0
 R1815: W1_453_1 + abs_W1_453_1 >= 0
 R1816: - W1_454_0 + abs_W1_454_0 >= 0
 R1817: W1_454_0 + abs_W1_454_0 >= 0
 R1818: - W1_454_1 + abs_W1_454_1 >= 0
 R1819: W1_454_1 + abs_W1_454_1 >= 0
 R1820: - W1_455_0 + abs_W1_455_0 >= 0
 R1821: W1_455_0 + abs_W1_455_0 >= 0
 R1822: - W1_455_1 + abs_W1_455_1 >= 0
 R1823: W1_455_1 + abs_W1_455_1 >= 0
 R1824: - W1_456_0 + abs_W1_456_0 >= 0
 R1825: W1_456_0 + abs_W1_456_0 >= 0
 R1826: - W1_456_1 + abs_W1_456_1 >= 0
 R1827: W1_456_1 + abs_W1_456_1 >= 0
 R1828: - W1_457_0 + abs_W1_457_0 >= 0
 R1829: W1_457_0 + abs_W1_457_0 >= 0
 R1830: - W1_457_1 + abs_W1_457_1 >= 0
 R1831: W1_457_1 + abs_W1_457_1 >= 0
 R1832: - W1_458_0 + abs_W1_458_0 >= 0
 R1833: W1_458_0 + abs_W1_458_0 >= 0
 R1834: - W1_458_1 + abs_W1_458_1 >= 0
 R1835: W1_458_1 + abs_W1_458_1 >= 0
 R1836: - W1_459_0 + abs_W1_459_0 >= 0
 R1837: W1_459_0 + abs_W1_459_0 >= 0
 R1838: - W1_459_1 + abs_W1_459_1 >= 0
 R1839: W1_459_1 + abs_W1_459_1 >= 0
 R1840: - W1_460_0 + abs_W1_460_0 >= 0
 R1841: W1_460_0 + abs_W1_460_0 >= 0
 R1842: - W1_460_1 + abs_W1_460_1 >= 0
 R1843: W1_460_1 + abs_W1_460_1 >= 0
 R1844: - W1_461_0 + abs_W1_461_0 >= 0
 R1845: W1_461_0 + abs_W1_461_0 >= 0
 R1846: - W1_461_1 + abs_W1_461_1 >= 0
 R1847: W1_461_1 + abs_W1_461_1 >= 0
 R1848: - W1_462_0 + abs_W1_462_0 >= 0
 R1849: W1_462_0 + abs_W1_462_0 >= 0
 R1850: - W1_462_1 + abs_W1_462_1 >= 0
 R1851: W1_462_1 + abs_W1_462_1 >= 0
 R1852: - W1_463_0 + abs_W1_463_0 >= 0
 R1853: W1_463_0 + abs_W1_463_0 >= 0
 R1854: - W1_463_1 + abs_W1_463_1 >= 0
 R1855: W1_463_1 + abs_W1_463_1 >= 0
 R1856: - W1_464_0 + abs_W1_464_0 >= 0
 R1857: W1_464_0 + abs_W1_464_0 >= 0
 R1858: - W1_464_1 + abs_W1_464_1 >= 0
 R1859: W1_464_1 + abs_W1_464_1 >= 0
 R1860: - W1_465_0 + abs_W1_465_0 >= 0
 R1861: W1_465_0 + abs_W1_465_0 >= 0
 R1862: - W1_465_1 + abs_W1_465_1 >= 0
 R1863: W1_465_1 + abs_W1_465_1 >= 0
 R1864: - W1_466_0 + abs_W1_466_0 >= 0
 R1865: W1_466_0 + abs_W1_466_0 >= 0
 R1866: - W1_466_1 + abs_W1_466_1 >= 0
 R1867: W1_466_1 + abs_W1_466_1 >= 0
 R1868: - W1_467_0 + abs_W1_467_0 >= 0
 R1869: W1_467_0 + abs_W1_467_0 >= 0
 R1870: - W1_467_1 + abs_W1_467_1 >= 0
 R1871: W1_467_1 + abs_W1_467_1 >= 0
 R1872: - W1_468_0 + abs_W1_468_0 >= 0
 R1873: W1_468_0 + abs_W1_468_0 >= 0
 R1874: - W1_468_1 + abs_W1_468_1 >= 0
 R1875: W1_468_1 + abs_W1_468_1 >= 0
 R1876: - W1_469_0 + abs_W1_469_0 >= 0
 R1877: W1_469_0 + abs_W1_469_0 >= 0
 R1878: - W1_469_1 + abs_W1_469_1 >= 0
 R1879: W1_469_1 + abs_W1_469_1 >= 0
 R1880: - W1_470_0 + abs_W1_470_0 >= 0
 R1881: W1_470_0 + abs_W1_470_0 >= 0
 R1882: - W1_470_1 + abs_W1_470_1 >= 0
 R1883: W1_470_1 + abs_W1_470_1 >= 0
 R1884: - W1_471_0 + abs_W1_471_0 >= 0
 R1885: W1_471_0 + abs_W1_471_0 >= 0
 R1886: - W1_471_1 + abs_W1_471_1 >= 0
 R1887: W1_471_1 + abs_W1_471_1 >= 0
 R1888: - W1_472_0 + abs_W1_472_0 >= 0
 R1889: W1_472_0 + abs_W1_472_0 >= 0
 R1890: - W1_472_1 + abs_W1_472_1 >= 0
 R1891: W1_472_1 + abs_W1_472_1 >= 0
 R1892: - W1_473_0 + abs_W1_473_0 >= 0
 R1893: W1_473_0 + abs_W1_473_0 >= 0
 R1894: - W1_473_1 + abs_W1_473_1 >= 0
 R1895: W1_473_1 + abs_W1_473_1 >= 0
 R1896: - W1_474_0 + abs_W1_474_0 >= 0
 R1897: W1_474_0 + abs_W1_474_0 >= 0
 R1898: - W1_474_1 + abs_W1_474_1 >= 0
 R1899: W1_474_1 + abs_W1_474_1 >= 0
 R1900: - W1_475_0 + abs_W1_475_0 >= 0
 R1901: W1_475_0 + abs_W1_475_0 >= 0
 R1902: - W1_475_1 + abs_W1_475_1 >= 0
 R1903: W1_475_1 + abs_W1_475_1 >= 0
 R1904: - W1_476_0 + abs_W1_476_0 >= 0
 R1905: W1_476_0 + abs_W1_476_0 >= 0
 R1906: - W1_476_1 + abs_W1_476_1 >= 0
 R1907: W1_476_1 + abs_W1_476_1 >= 0
 R1908: - W1_477_0 + abs_W1_477_0 >= 0
 R1909: W1_477_0 + abs_W1_477_0 >= 0
 R1910: - W1_477_1 + abs_W1_477_1 >= 0
 R1911: W1_477_1 + abs_W1_477_1 >= 0
 R1912: - W1_478_0 + abs_W1_478_0 >= 0
 R1913: W1_478_0 + abs_W1_478_0 >= 0
 R1914: - W1_478_1 + abs_W1_478_1 >= 0
 R1915: W1_478_1 + abs_W1_478_1 >= 0
 R1916: - W1_479_0 + abs_W1_479_0 >= 0
 R1917: W1_479_0 + abs_W1_479_0 >= 0
 R1918: - W1_479_1 + abs_W1_479_1 >= 0
 R1919: W1_479_1 + abs_W1_479_1 >= 0
 R1920: - W1_480_0 + abs_W1_480_0 >= 0
 R1921: W1_480_0 + abs_W1_480_0 >= 0
 R1922: - W1_480_1 + abs_W1_480_1 >= 0
 R1923: W1_480_1 + abs_W1_480_1 >= 0
 R1924: - W1_481_0 + abs_W1_481_0 >= 0
 R1925: W1_481_0 + abs_W1_481_0 >= 0
 R1926: - W1_481_1 + abs_W1_481_1 >= 0
 R1927: W1_481_1 + abs_W1_481_1 >= 0
 R1928: - W1_482_0 + abs_W1_482_0 >= 0
 R1929: W1_482_0 + abs_W1_482_0 >= 0
 R1930: - W1_482_1 + abs_W1_482_1 >= 0
 R1931: W1_482_1 + abs_W1_482_1 >= 0
 R1932: - W1_483_0 + abs_W1_483_0 >= 0
 R1933: W1_483_0 + abs_W1_483_0 >= 0
 R1934: - W1_483_1 + abs_W1_483_1 >= 0
 R1935: W1_483_1 + abs_W1_483_1 >= 0
 R1936: - W1_484_0 + abs_W1_484_0 >= 0
 R1937: W1_484_0 + abs_W1_484_0 >= 0
 R1938: - W1_484_1 + abs_W1_484_1 >= 0
 R1939: W1_484_1 + abs_W1_484_1 >= 0
 R1940: - W1_485_0 + abs_W1_485_0 >= 0
 R1941: W1_485_0 + abs_W1_485_0 >= 0
 R1942: - W1_485_1 + abs_W1_485_1 >= 0
 R1943: W1_485_1 + abs_W1_485_1 >= 0
 R1944: - W1_486_0 + abs_W1_486_0 >= 0
 R1945: W1_486_0 + abs_W1_486_0 >= 0
 R1946: - W1_486_1 + abs_W1_486_1 >= 0
 R1947: W1_486_1 + abs_W1_486_1 >= 0
 R1948: - W1_487_0 + abs_W1_487_0 >= 0
 R1949: W1_487_0 + abs_W1_487_0 >= 0
 R1950: - W1_487_1 + abs_W1_487_1 >= 0
 R1951: W1_487_1 + abs_W1_487_1 >= 0
 R1952: - W1_488_0 + abs_W1_488_0 >= 0
 R1953: W1_488_0 + abs_W1_488_0 >= 0
 R1954: - W1_488_1 + abs_W1_488_1 >= 0
 R1955: W1_488_1 + abs_W1_488_1 >= 0
 R1956: - W1_489_0 + abs_W1_489_0 >= 0
 R1957: W1_489_0 + abs_W1_489_0 >= 0
 R1958: - W1_489_1 + abs_W1_489_1 >= 0
 R1959: W1_489_1 + abs_W1_489_1 >= 0
 R1960: - W1_490_0 + abs_W1_490_0 >= 0
 R1961: W1_490_0 + abs_W1_490_0 >= 0
 R1962: - W1_490_1 + abs_W1_490_1 >= 0
 R1963: W1_490_1 + abs_W1_490_1 >= 0
 R1964: - W1_491_0 + abs_W1_491_0 >= 0
 R1965: W1_491_0 + abs_W1_491_0 >= 0
 R1966: - W1_491_1 + abs_W1_491_1 >= 0
 R1967: W1_491_1 + abs_W1_491_1 >= 0
 R1968: - W1_492_0 + abs_W1_492_0 >= 0
 R1969: W1_492_0 + abs_W1_492_0 >= 0
 R1970: - W1_492_1 + abs_W1_492_1 >= 0
 R1971: W1_492_1 + abs_W1_492_1 >= 0
 R1972: - W1_493_0 + abs_W1_493_0 >= 0
 R1973: W1_493_0 + abs_W1_493_0 >= 0
 R1974: - W1_493_1 + abs_W1_493_1 >= 0
 R1975: W1_493_1 + abs_W1_493_1 >= 0
 R1976: - W1_494_0 + abs_W1_494_0 >= 0
 R1977: W1_494_0 + abs_W1_494_0 >= 0
 R1978: - W1_494_1 + abs_W1_494_1 >= 0
 R1979: W1_494_1 + abs_W1_494_1 >= 0
 R1980: - W1_495_0 + abs_W1_495_0 >= 0
 R1981: W1_495_0 + abs_W1_495_0 >= 0
 R1982: - W1_495_1 + abs_W1_495_1 >= 0
 R1983: W1_495_1 + abs_W1_495_1 >= 0
 R1984: - W1_496_0 + abs_W1_496_0 >= 0
 R1985: W1_496_0 + abs_W1_496_0 >= 0
 R1986: - W1_496_1 + abs_W1_496_1 >= 0
 R1987: W1_496_1 + abs_W1_496_1 >= 0
 R1988: - W1_497_0 + abs_W1_497_0 >= 0
 R1989: W1_497_0 + abs_W1_497_0 >= 0
 R1990: - W1_497_1 + abs_W1_497_1 >= 0
 R1991: W1_497_1 + abs_W1_497_1 >= 0
 R1992: - W1_498_0 + abs_W1_498_0 >= 0
 R1993: W1_498_0 + abs_W1_498_0 >= 0
 R1994: - W1_498_1 + abs_W1_498_1 >= 0
 R1995: W1_498_1 + abs_W1_498_1 >= 0
 R1996: - W1_499_0 + abs_W1_499_0 >= 0
 R1997: W1_499_0 + abs_W1_499_0 >= 0
 R1998: - W1_499_1 + abs_W1_499_1 >= 0
 R1999: W1_499_1 + abs_W1_499_1 >= 0
 R2000: - W1_500_0 + abs_W1_500_0 >= 0
 R2001: W1_500_0 + abs_W1_500_0 >= 0
 R2002: - W1_500_1 + abs_W1_500_1 >= 0
 R2003: W1_500_1 + abs_W1_500_1 >= 0
 R2004: - W1_501_0 + abs_W1_501_0 >= 0
 R2005: W1_501_0 + abs_W1_501_0 >= 0
 R2006: - W1_501_1 + abs_W1_501_1 >= 0
 R2007: W1_501_1 + abs_W1_501_1 >= 0
 R2008: - W1_502_0 + abs_W1_502_0 >= 0
 R2009: W1_502_0 + abs_W1_502_0 >= 0
 R2010: - W1_502_1 + abs_W1_502_1 >= 0
 R2011: W1_502_1 + abs_W1_502_1 >= 0
 R2012: - W1_503_0 + abs_W1_503_0 >= 0
 R2013: W1_503_0 + abs_W1_503_0 >= 0
 R2014: - W1_503_1 + abs_W1_503_1 >= 0
 R2015: W1_503_1 + abs_W1_503_1 >= 0
 R2016: - W1_504_0 + abs_W1_504_0 >= 0
 R2017: W1_504_0 + abs_W1_504_0 >= 0
 R2018: - W1_504_1 + abs_W1_504_1 >= 0
 R2019: W1_504_1 + abs_W1_504_1 >= 0
 R2020: - W1_505_0 + abs_W1_505_0 >= 0
 R2021: W1_505_0 + abs_W1_505_0 >= 0
 R2022: - W1_505_1 + abs_W1_505_1 >= 0
 R2023: W1_505_1 + abs_W1_505_1 >= 0
 R2024: - W1_506_0 + abs_W1_506_0 >= 0
 R2025: W1_506_0 + abs_W1_506_0 >= 0
 R2026: - W1_506_1 + abs_W1_506_1 >= 0
 R2027: W1_506_1 + abs_W1_506_1 >= 0
 R2028: - W1_507_0 + abs_W1_507_0 >= 0
 R2029: W1_507_0 + abs_W1_507_0 >= 0
 R2030: - W1_507_1 + abs_W1_507_1 >= 0
 R2031: W1_507_1 + abs_W1_507_1 >= 0
 R2032: - W1_508_0 + abs_W1_508_0 >= 0
 R2033: W1_508_0 + abs_W1_508_0 >= 0
 R2034: - W1_508_1 + abs_W1_508_1 >= 0
 R2035: W1_508_1 + abs_W1_508_1 >= 0
 R2036: - W1_509_0 + abs_W1_509_0 >= 0
 R2037: W1_509_0 + abs_W1_509_0 >= 0
 R2038: - W1_509_1 + abs_W1_509_1 >= 0
 R2039: W1_509_1 + abs_W1_509_1 >= 0
 R2040: - W1_510_0 + abs_W1_510_0 >= 0
 R2041: W1_510_0 + abs_W1_510_0 >= 0
 R2042: - W1_510_1 + abs_W1_510_1 >= 0
 R2043: W1_510_1 + abs_W1_510_1 >= 0
 R2044: - W1_511_0 + abs_W1_511_0 >= 0
 R2045: W1_511_0 + abs_W1_511_0 >= 0
 R2046: - W1_511_1 + abs_W1_511_1 >= 0
 R2047: W1_511_1 + abs_W1_511_1 >= 0
 R2048: - W1_512_0 + abs_W1_512_0 >= 0
 R2049: W1_512_0 + abs_W1_512_0 >= 0
 R2050: - W1_512_1 + abs_W1_512_1 >= 0
 R2051: W1_512_1 + abs_W1_512_1 >= 0
 R2052: - W1_513_0 + abs_W1_513_0 >= 0
 R2053: W1_513_0 + abs_W1_513_0 >= 0
 R2054: - W1_513_1 + abs_W1_513_1 >= 0
 R2055: W1_513_1 + abs_W1_513_1 >= 0
 R2056: - W1_514_0 + abs_W1_514_0 >= 0
 R2057: W1_514_0 + abs_W1_514_0 >= 0
 R2058: - W1_514_1 + abs_W1_514_1 >= 0
 R2059: W1_514_1 + abs_W1_514_1 >= 0
 R2060: - W1_515_0 + abs_W1_515_0 >= 0
 R2061: W1_515_0 + abs_W1_515_0 >= 0
 R2062: - W1_515_1 + abs_W1_515_1 >= 0
 R2063: W1_515_1 + abs_W1_515_1 >= 0
 R2064: - W1_516_0 + abs_W1_516_0 >= 0
 R2065: W1_516_0 + abs_W1_516_0 >= 0
 R2066: - W1_516_1 + abs_W1_516_1 >= 0
 R2067: W1_516_1 + abs_W1_516_1 >= 0
 R2068: - W1_517_0 + abs_W1_517_0 >= 0
 R2069: W1_517_0 + abs_W1_517_0 >= 0
 R2070: - W1_517_1 + abs_W1_517_1 >= 0
 R2071: W1_517_1 + abs_W1_517_1 >= 0
 R2072: - W1_518_0 + abs_W1_518_0 >= 0
 R2073: W1_518_0 + abs_W1_518_0 >= 0
 R2074: - W1_518_1 + abs_W1_518_1 >= 0
 R2075: W1_518_1 + abs_W1_518_1 >= 0
 R2076: - W1_519_0 + abs_W1_519_0 >= 0
 R2077: W1_519_0 + abs_W1_519_0 >= 0
 R2078: - W1_519_1 + abs_W1_519_1 >= 0
 R2079: W1_519_1 + abs_W1_519_1 >= 0
 R2080: - W1_520_0 + abs_W1_520_0 >= 0
 R2081: W1_520_0 + abs_W1_520_0 >= 0
 R2082: - W1_520_1 + abs_W1_520_1 >= 0
 R2083: W1_520_1 + abs_W1_520_1 >= 0
 R2084: - W1_521_0 + abs_W1_521_0 >= 0
 R2085: W1_521_0 + abs_W1_521_0 >= 0
 R2086: - W1_521_1 + abs_W1_521_1 >= 0
 R2087: W1_521_1 + abs_W1_521_1 >= 0
 R2088: - W1_522_0 + abs_W1_522_0 >= 0
 R2089: W1_522_0 + abs_W1_522_0 >= 0
 R2090: - W1_522_1 + abs_W1_522_1 >= 0
 R2091: W1_522_1 + abs_W1_522_1 >= 0
 R2092: - W1_523_0 + abs_W1_523_0 >= 0
 R2093: W1_523_0 + abs_W1_523_0 >= 0
 R2094: - W1_523_1 + abs_W1_523_1 >= 0
 R2095: W1_523_1 + abs_W1_523_1 >= 0
 R2096: - W1_524_0 + abs_W1_524_0 >= 0
 R2097: W1_524_0 + abs_W1_524_0 >= 0
 R2098: - W1_524_1 + abs_W1_524_1 >= 0
 R2099: W1_524_1 + abs_W1_524_1 >= 0
 R2100: - W1_525_0 + abs_W1_525_0 >= 0
 R2101: W1_525_0 + abs_W1_525_0 >= 0
 R2102: - W1_525_1 + abs_W1_525_1 >= 0
 R2103: W1_525_1 + abs_W1_525_1 >= 0
 R2104: - W1_526_0 + abs_W1_526_0 >= 0
 R2105: W1_526_0 + abs_W1_526_0 >= 0
 R2106: - W1_526_1 + abs_W1_526_1 >= 0
 R2107: W1_526_1 + abs_W1_526_1 >= 0
 R2108: - W1_527_0 + abs_W1_527_0 >= 0
 R2109: W1_527_0 + abs_W1_527_0 >= 0
 R2110: - W1_527_1 + abs_W1_527_1 >= 0
 R2111: W1_527_1 + abs_W1_527_1 >= 0
 R2112: - W1_528_0 + abs_W1_528_0 >= 0
 R2113: W1_528_0 + abs_W1_528_0 >= 0
 R2114: - W1_528_1 + abs_W1_528_1 >= 0
 R2115: W1_528_1 + abs_W1_528_1 >= 0
 R2116: - W1_529_0 + abs_W1_529_0 >= 0
 R2117: W1_529_0 + abs_W1_529_0 >= 0
 R2118: - W1_529_1 + abs_W1_529_1 >= 0
 R2119: W1_529_1 + abs_W1_529_1 >= 0
 R2120: - W1_530_0 + abs_W1_530_0 >= 0
 R2121: W1_530_0 + abs_W1_530_0 >= 0
 R2122: - W1_530_1 + abs_W1_530_1 >= 0
 R2123: W1_530_1 + abs_W1_530_1 >= 0
 R2124: - W1_531_0 + abs_W1_531_0 >= 0
 R2125: W1_531_0 + abs_W1_531_0 >= 0
 R2126: - W1_531_1 + abs_W1_531_1 >= 0
 R2127: W1_531_1 + abs_W1_531_1 >= 0
 R2128: - W1_532_0 + abs_W1_532_0 >= 0
 R2129: W1_532_0 + abs_W1_532_0 >= 0
 R2130: - W1_532_1 + abs_W1_532_1 >= 0
 R2131: W1_532_1 + abs_W1_532_1 >= 0
 R2132: - W1_533_0 + abs_W1_533_0 >= 0
 R2133: W1_533_0 + abs_W1_533_0 >= 0
 R2134: - W1_533_1 + abs_W1_533_1 >= 0
 R2135: W1_533_1 + abs_W1_533_1 >= 0
 R2136: - W1_534_0 + abs_W1_534_0 >= 0
 R2137: W1_534_0 + abs_W1_534_0 >= 0
 R2138: - W1_534_1 + abs_W1_534_1 >= 0
 R2139: W1_534_1 + abs_W1_534_1 >= 0
 R2140: - W1_535_0 + abs_W1_535_0 >= 0
 R2141: W1_535_0 + abs_W1_535_0 >= 0
 R2142: - W1_535_1 + abs_W1_535_1 >= 0
 R2143: W1_535_1 + abs_W1_535_1 >= 0
 R2144: - W1_536_0 + abs_W1_536_0 >= 0
 R2145: W1_536_0 + abs_W1_536_0 >= 0
 R2146: - W1_536_1 + abs_W1_536_1 >= 0
 R2147: W1_536_1 + abs_W1_536_1 >= 0
 R2148: - W1_537_0 + abs_W1_537_0 >= 0
 R2149: W1_537_0 + abs_W1_537_0 >= 0
 R2150: - W1_537_1 + abs_W1_537_1 >= 0
 R2151: W1_537_1 + abs_W1_537_1 >= 0
 R2152: - W1_538_0 + abs_W1_538_0 >= 0
 R2153: W1_538_0 + abs_W1_538_0 >= 0
 R2154: - W1_538_1 + abs_W1_538_1 >= 0
 R2155: W1_538_1 + abs_W1_538_1 >= 0
 R2156: - W1_539_0 + abs_W1_539_0 >= 0
 R2157: W1_539_0 + abs_W1_539_0 >= 0
 R2158: - W1_539_1 + abs_W1_539_1 >= 0
 R2159: W1_539_1 + abs_W1_539_1 >= 0
 R2160: - W1_540_0 + abs_W1_540_0 >= 0
 R2161: W1_540_0 + abs_W1_540_0 >= 0
 R2162: - W1_540_1 + abs_W1_540_1 >= 0
 R2163: W1_540_1 + abs_W1_540_1 >= 0
 R2164: - W1_541_0 + abs_W1_541_0 >= 0
 R2165: W1_541_0 + abs_W1_541_0 >= 0
 R2166: - W1_541_1 + abs_W1_541_1 >= 0
 R2167: W1_541_1 + abs_W1_541_1 >= 0
 R2168: - W1_542_0 + abs_W1_542_0 >= 0
 R2169: W1_542_0 + abs_W1_542_0 >= 0
 R2170: - W1_542_1 + abs_W1_542_1 >= 0
 R2171: W1_542_1 + abs_W1_542_1 >= 0
 R2172: - W1_543_0 + abs_W1_543_0 >= 0
 R2173: W1_543_0 + abs_W1_543_0 >= 0
 R2174: - W1_543_1 + abs_W1_543_1 >= 0
 R2175: W1_543_1 + abs_W1_543_1 >= 0
 R2176: - W1_544_0 + abs_W1_544_0 >= 0
 R2177: W1_544_0 + abs_W1_544_0 >= 0
 R2178: - W1_544_1 + abs_W1_544_1 >= 0
 R2179: W1_544_1 + abs_W1_544_1 >= 0
 R2180: - W1_545_0 + abs_W1_545_0 >= 0
 R2181: W1_545_0 + abs_W1_545_0 >= 0
 R2182: - W1_545_1 + abs_W1_545_1 >= 0
 R2183: W1_545_1 + abs_W1_545_1 >= 0
 R2184: - W1_546_0 + abs_W1_546_0 >= 0
 R2185: W1_546_0 + abs_W1_546_0 >= 0
 R2186: - W1_546_1 + abs_W1_546_1 >= 0
 R2187: W1_546_1 + abs_W1_546_1 >= 0
 R2188: - W1_547_0 + abs_W1_547_0 >= 0
 R2189: W1_547_0 + abs_W1_547_0 >= 0
 R2190: - W1_547_1 + abs_W1_547_1 >= 0
 R2191: W1_547_1 + abs_W1_547_1 >= 0
 R2192: - W1_548_0 + abs_W1_548_0 >= 0
 R2193: W1_548_0 + abs_W1_548_0 >= 0
 R2194: - W1_548_1 + abs_W1_548_1 >= 0
 R2195: W1_548_1 + abs_W1_548_1 >= 0
 R2196: - W1_549_0 + abs_W1_549_0 >= 0
 R2197: W1_549_0 + abs_W1_549_0 >= 0
 R2198: - W1_549_1 + abs_W1_549_1 >= 0
 R2199: W1_549_1 + abs_W1_549_1 >= 0
 R2200: - W1_550_0 + abs_W1_550_0 >= 0
 R2201: W1_550_0 + abs_W1_550_0 >= 0
 R2202: - W1_550_1 + abs_W1_550_1 >= 0
 R2203: W1_550_1 + abs_W1_550_1 >= 0
 R2204: - W1_551_0 + abs_W1_551_0 >= 0
 R2205: W1_551_0 + abs_W1_551_0 >= 0
 R2206: - W1_551_1 + abs_W1_551_1 >= 0
 R2207: W1_551_1 + abs_W1_551_1 >= 0
 R2208: - W1_552_0 + abs_W1_552_0 >= 0
 R2209: W1_552_0 + abs_W1_552_0 >= 0
 R2210: - W1_552_1 + abs_W1_552_1 >= 0
 R2211: W1_552_1 + abs_W1_552_1 >= 0
 R2212: - W1_553_0 + abs_W1_553_0 >= 0
 R2213: W1_553_0 + abs_W1_553_0 >= 0
 R2214: - W1_553_1 + abs_W1_553_1 >= 0
 R2215: W1_553_1 + abs_W1_553_1 >= 0
 R2216: - W1_554_0 + abs_W1_554_0 >= 0
 R2217: W1_554_0 + abs_W1_554_0 >= 0
 R2218: - W1_554_1 + abs_W1_554_1 >= 0
 R2219: W1_554_1 + abs_W1_554_1 >= 0
 R2220: - W1_555_0 + abs_W1_555_0 >= 0
 R2221: W1_555_0 + abs_W1_555_0 >= 0
 R2222: - W1_555_1 + abs_W1_555_1 >= 0
 R2223: W1_555_1 + abs_W1_555_1 >= 0
 R2224: - W1_556_0 + abs_W1_556_0 >= 0
 R2225: W1_556_0 + abs_W1_556_0 >= 0
 R2226: - W1_556_1 + abs_W1_556_1 >= 0
 R2227: W1_556_1 + abs_W1_556_1 >= 0
 R2228: - W1_557_0 + abs_W1_557_0 >= 0
 R2229: W1_557_0 + abs_W1_557_0 >= 0
 R2230: - W1_557_1 + abs_W1_557_1 >= 0
 R2231: W1_557_1 + abs_W1_557_1 >= 0
 R2232: - W1_558_0 + abs_W1_558_0 >= 0
 R2233: W1_558_0 + abs_W1_558_0 >= 0
 R2234: - W1_558_1 + abs_W1_558_1 >= 0
 R2235: W1_558_1 + abs_W1_558_1 >= 0
 R2236: - W1_559_0 + abs_W1_559_0 >= 0
 R2237: W1_559_0 + abs_W1_559_0 >= 0
 R2238: - W1_559_1 + abs_W1_559_1 >= 0
 R2239: W1_559_1 + abs_W1_559_1 >= 0
 R2240: - W1_560_0 + abs_W1_560_0 >= 0
 R2241: W1_560_0 + abs_W1_560_0 >= 0
 R2242: - W1_560_1 + abs_W1_560_1 >= 0
 R2243: W1_560_1 + abs_W1_560_1 >= 0
 R2244: - W1_561_0 + abs_W1_561_0 >= 0
 R2245: W1_561_0 + abs_W1_561_0 >= 0
 R2246: - W1_561_1 + abs_W1_561_1 >= 0
 R2247: W1_561_1 + abs_W1_561_1 >= 0
 R2248: - W1_562_0 + abs_W1_562_0 >= 0
 R2249: W1_562_0 + abs_W1_562_0 >= 0
 R2250: - W1_562_1 + abs_W1_562_1 >= 0
 R2251: W1_562_1 + abs_W1_562_1 >= 0
 R2252: - W1_563_0 + abs_W1_563_0 >= 0
 R2253: W1_563_0 + abs_W1_563_0 >= 0
 R2254: - W1_563_1 + abs_W1_563_1 >= 0
 R2255: W1_563_1 + abs_W1_563_1 >= 0
 R2256: - W1_564_0 + abs_W1_564_0 >= 0
 R2257: W1_564_0 + abs_W1_564_0 >= 0
 R2258: - W1_564_1 + abs_W1_564_1 >= 0
 R2259: W1_564_1 + abs_W1_564_1 >= 0
 R2260: - W1_565_0 + abs_W1_565_0 >= 0
 R2261: W1_565_0 + abs_W1_565_0 >= 0
 R2262: - W1_565_1 + abs_W1_565_1 >= 0
 R2263: W1_565_1 + abs_W1_565_1 >= 0
 R2264: - W1_566_0 + abs_W1_566_0 >= 0
 R2265: W1_566_0 + abs_W1_566_0 >= 0
 R2266: - W1_566_1 + abs_W1_566_1 >= 0
 R2267: W1_566_1 + abs_W1_566_1 >= 0
 R2268: - W1_567_0 + abs_W1_567_0 >= 0
 R2269: W1_567_0 + abs_W1_567_0 >= 0
 R2270: - W1_567_1 + abs_W1_567_1 >= 0
 R2271: W1_567_1 + abs_W1_567_1 >= 0
 R2272: - W1_568_0 + abs_W1_568_0 >= 0
 R2273: W1_568_0 + abs_W1_568_0 >= 0
 R2274: - W1_568_1 + abs_W1_568_1 >= 0
 R2275: W1_568_1 + abs_W1_568_1 >= 0
 R2276: - W1_569_0 + abs_W1_569_0 >= 0
 R2277: W1_569_0 + abs_W1_569_0 >= 0
 R2278: - W1_569_1 + abs_W1_569_1 >= 0
 R2279: W1_569_1 + abs_W1_569_1 >= 0
 R2280: - W1_570_0 + abs_W1_570_0 >= 0
 R2281: W1_570_0 + abs_W1_570_0 >= 0
 R2282: - W1_570_1 + abs_W1_570_1 >= 0
 R2283: W1_570_1 + abs_W1_570_1 >= 0
 R2284: - W1_571_0 + abs_W1_571_0 >= 0
 R2285: W1_571_0 + abs_W1_571_0 >= 0
 R2286: - W1_571_1 + abs_W1_571_1 >= 0
 R2287: W1_571_1 + abs_W1_571_1 >= 0
 R2288: - W1_572_0 + abs_W1_572_0 >= 0
 R2289: W1_572_0 + abs_W1_572_0 >= 0
 R2290: - W1_572_1 + abs_W1_572_1 >= 0
 R2291: W1_572_1 + abs_W1_572_1 >= 0
 R2292: - W1_573_0 + abs_W1_573_0 >= 0
 R2293: W1_573_0 + abs_W1_573_0 >= 0
 R2294: - W1_573_1 + abs_W1_573_1 >= 0
 R2295: W1_573_1 + abs_W1_573_1 >= 0
 R2296: - W1_574_0 + abs_W1_574_0 >= 0
 R2297: W1_574_0 + abs_W1_574_0 >= 0
 R2298: - W1_574_1 + abs_W1_574_1 >= 0
 R2299: W1_574_1 + abs_W1_574_1 >= 0
 R2300: - W1_575_0 + abs_W1_575_0 >= 0
 R2301: W1_575_0 + abs_W1_575_0 >= 0
 R2302: - W1_575_1 + abs_W1_575_1 >= 0
 R2303: W1_575_1 + abs_W1_575_1 >= 0
 R2304: - W1_576_0 + abs_W1_576_0 >= 0
 R2305: W1_576_0 + abs_W1_576_0 >= 0
 R2306: - W1_576_1 + abs_W1_576_1 >= 0
 R2307: W1_576_1 + abs_W1_576_1 >= 0
 R2308: - W1_577_0 + abs_W1_577_0 >= 0
 R2309: W1_577_0 + abs_W1_577_0 >= 0
 R2310: - W1_577_1 + abs_W1_577_1 >= 0
 R2311: W1_577_1 + abs_W1_577_1 >= 0
 R2312: - W1_578_0 + abs_W1_578_0 >= 0
 R2313: W1_578_0 + abs_W1_578_0 >= 0
 R2314: - W1_578_1 + abs_W1_578_1 >= 0
 R2315: W1_578_1 + abs_W1_578_1 >= 0
 R2316: - W1_579_0 + abs_W1_579_0 >= 0
 R2317: W1_579_0 + abs_W1_579_0 >= 0
 R2318: - W1_579_1 + abs_W1_579_1 >= 0
 R2319: W1_579_1 + abs_W1_579_1 >= 0
 R2320: - W1_580_0 + abs_W1_580_0 >= 0
 R2321: W1_580_0 + abs_W1_580_0 >= 0
 R2322: - W1_580_1 + abs_W1_580_1 >= 0
 R2323: W1_580_1 + abs_W1_580_1 >= 0
 R2324: - W1_581_0 + abs_W1_581_0 >= 0
 R2325: W1_581_0 + abs_W1_581_0 >= 0
 R2326: - W1_581_1 + abs_W1_581_1 >= 0
 R2327: W1_581_1 + abs_W1_581_1 >= 0
 R2328: - W1_582_0 + abs_W1_582_0 >= 0
 R2329: W1_582_0 + abs_W1_582_0 >= 0
 R2330: - W1_582_1 + abs_W1_582_1 >= 0
 R2331: W1_582_1 + abs_W1_582_1 >= 0
 R2332: - W1_583_0 + abs_W1_583_0 >= 0
 R2333: W1_583_0 + abs_W1_583_0 >= 0
 R2334: - W1_583_1 + abs_W1_583_1 >= 0
 R2335: W1_583_1 + abs_W1_583_1 >= 0
 R2336: - W1_584_0 + abs_W1_584_0 >= 0
 R2337: W1_584_0 + abs_W1_584_0 >= 0
 R2338: - W1_584_1 + abs_W1_584_1 >= 0
 R2339: W1_584_1 + abs_W1_584_1 >= 0
 R2340: - W1_585_0 + abs_W1_585_0 >= 0
 R2341: W1_585_0 + abs_W1_585_0 >= 0
 R2342: - W1_585_1 + abs_W1_585_1 >= 0
 R2343: W1_585_1 + abs_W1_585_1 >= 0
 R2344: - W1_586_0 + abs_W1_586_0 >= 0
 R2345: W1_586_0 + abs_W1_586_0 >= 0
 R2346: - W1_586_1 + abs_W1_586_1 >= 0
 R2347: W1_586_1 + abs_W1_586_1 >= 0
 R2348: - W1_587_0 + abs_W1_587_0 >= 0
 R2349: W1_587_0 + abs_W1_587_0 >= 0
 R2350: - W1_587_1 + abs_W1_587_1 >= 0
 R2351: W1_587_1 + abs_W1_587_1 >= 0
 R2352: - W1_588_0 + abs_W1_588_0 >= 0
 R2353: W1_588_0 + abs_W1_588_0 >= 0
 R2354: - W1_588_1 + abs_W1_588_1 >= 0
 R2355: W1_588_1 + abs_W1_588_1 >= 0
 R2356: - W1_589_0 + abs_W1_589_0 >= 0
 R2357: W1_589_0 + abs_W1_589_0 >= 0
 R2358: - W1_589_1 + abs_W1_589_1 >= 0
 R2359: W1_589_1 + abs_W1_589_1 >= 0
 R2360: - W1_590_0 + abs_W1_590_0 >= 0
 R2361: W1_590_0 + abs_W1_590_0 >= 0
 R2362: - W1_590_1 + abs_W1_590_1 >= 0
 R2363: W1_590_1 + abs_W1_590_1 >= 0
 R2364: - W1_591_0 + abs_W1_591_0 >= 0
 R2365: W1_591_0 + abs_W1_591_0 >= 0
 R2366: - W1_591_1 + abs_W1_591_1 >= 0
 R2367: W1_591_1 + abs_W1_591_1 >= 0
 R2368: - W1_592_0 + abs_W1_592_0 >= 0
 R2369: W1_592_0 + abs_W1_592_0 >= 0
 R2370: - W1_592_1 + abs_W1_592_1 >= 0
 R2371: W1_592_1 + abs_W1_592_1 >= 0
 R2372: - W1_593_0 + abs_W1_593_0 >= 0
 R2373: W1_593_0 + abs_W1_593_0 >= 0
 R2374: - W1_593_1 + abs_W1_593_1 >= 0
 R2375: W1_593_1 + abs_W1_593_1 >= 0
 R2376: - W1_594_0 + abs_W1_594_0 >= 0
 R2377: W1_594_0 + abs_W1_594_0 >= 0
 R2378: - W1_594_1 + abs_W1_594_1 >= 0
 R2379: W1_594_1 + abs_W1_594_1 >= 0
 R2380: - W1_595_0 + abs_W1_595_0 >= 0
 R2381: W1_595_0 + abs_W1_595_0 >= 0
 R2382: - W1_595_1 + abs_W1_595_1 >= 0
 R2383: W1_595_1 + abs_W1_595_1 >= 0
 R2384: - W1_596_0 + abs_W1_596_0 >= 0
 R2385: W1_596_0 + abs_W1_596_0 >= 0
 R2386: - W1_596_1 + abs_W1_596_1 >= 0
 R2387: W1_596_1 + abs_W1_596_1 >= 0
 R2388: - W1_597_0 + abs_W1_597_0 >= 0
 R2389: W1_597_0 + abs_W1_597_0 >= 0
 R2390: - W1_597_1 + abs_W1_597_1 >= 0
 R2391: W1_597_1 + abs_W1_597_1 >= 0
 R2392: - W1_598_0 + abs_W1_598_0 >= 0
 R2393: W1_598_0 + abs_W1_598_0 >= 0
 R2394: - W1_598_1 + abs_W1_598_1 >= 0
 R2395: W1_598_1 + abs_W1_598_1 >= 0
 R2396: - W1_599_0 + abs_W1_599_0 >= 0
 R2397: W1_599_0 + abs_W1_599_0 >= 0
 R2398: - W1_599_1 + abs_W1_599_1 >= 0
 R2399: W1_599_1 + abs_W1_599_1 >= 0
 R2400: - W1_600_0 + abs_W1_600_0 >= 0
 R2401: W1_600_0 + abs_W1_600_0 >= 0
 R2402: - W1_600_1 + abs_W1_600_1 >= 0
 R2403: W1_600_1 + abs_W1_600_1 >= 0
 R2404: - W1_601_0 + abs_W1_601_0 >= 0
 R2405: W1_601_0 + abs_W1_601_0 >= 0
 R2406: - W1_601_1 + abs_W1_601_1 >= 0
 R2407: W1_601_1 + abs_W1_601_1 >= 0
 R2408: - W1_602_0 + abs_W1_602_0 >= 0
 R2409: W1_602_0 + abs_W1_602_0 >= 0
 R2410: - W1_602_1 + abs_W1_602_1 >= 0
 R2411: W1_602_1 + abs_W1_602_1 >= 0
 R2412: - W1_603_0 + abs_W1_603_0 >= 0
 R2413: W1_603_0 + abs_W1_603_0 >= 0
 R2414: - W1_603_1 + abs_W1_603_1 >= 0
 R2415: W1_603_1 + abs_W1_603_1 >= 0
 R2416: - W1_604_0 + abs_W1_604_0 >= 0
 R2417: W1_604_0 + abs_W1_604_0 >= 0
 R2418: - W1_604_1 + abs_W1_604_1 >= 0
 R2419: W1_604_1 + abs_W1_604_1 >= 0
 R2420: - W1_605_0 + abs_W1_605_0 >= 0
 R2421: W1_605_0 + abs_W1_605_0 >= 0
 R2422: - W1_605_1 + abs_W1_605_1 >= 0
 R2423: W1_605_1 + abs_W1_605_1 >= 0
 R2424: - W1_606_0 + abs_W1_606_0 >= 0
 R2425: W1_606_0 + abs_W1_606_0 >= 0
 R2426: - W1_606_1 + abs_W1_606_1 >= 0
 R2427: W1_606_1 + abs_W1_606_1 >= 0
 R2428: - W1_607_0 + abs_W1_607_0 >= 0
 R2429: W1_607_0 + abs_W1_607_0 >= 0
 R2430: - W1_607_1 + abs_W1_607_1 >= 0
 R2431: W1_607_1 + abs_W1_607_1 >= 0
 R2432: - W1_608_0 + abs_W1_608_0 >= 0
 R2433: W1_608_0 + abs_W1_608_0 >= 0
 R2434: - W1_608_1 + abs_W1_608_1 >= 0
 R2435: W1_608_1 + abs_W1_608_1 >= 0
 R2436: - W1_609_0 + abs_W1_609_0 >= 0
 R2437: W1_609_0 + abs_W1_609_0 >= 0
 R2438: - W1_609_1 + abs_W1_609_1 >= 0
 R2439: W1_609_1 + abs_W1_609_1 >= 0
 R2440: - W1_610_0 + abs_W1_610_0 >= 0
 R2441: W1_610_0 + abs_W1_610_0 >= 0
 R2442: - W1_610_1 + abs_W1_610_1 >= 0
 R2443: W1_610_1 + abs_W1_610_1 >= 0
 R2444: - W1_611_0 + abs_W1_611_0 >= 0
 R2445: W1_611_0 + abs_W1_611_0 >= 0
 R2446: - W1_611_1 + abs_W1_611_1 >= 0
 R2447: W1_611_1 + abs_W1_611_1 >= 0
 R2448: - W1_612_0 + abs_W1_612_0 >= 0
 R2449: W1_612_0 + abs_W1_612_0 >= 0
 R2450: - W1_612_1 + abs_W1_612_1 >= 0
 R2451: W1_612_1 + abs_W1_612_1 >= 0
 R2452: - W1_613_0 + abs_W1_613_0 >= 0
 R2453: W1_613_0 + abs_W1_613_0 >= 0
 R2454: - W1_613_1 + abs_W1_613_1 >= 0
 R2455: W1_613_1 + abs_W1_613_1 >= 0
 R2456: - W1_614_0 + abs_W1_614_0 >= 0
 R2457: W1_614_0 + abs_W1_614_0 >= 0
 R2458: - W1_614_1 + abs_W1_614_1 >= 0
 R2459: W1_614_1 + abs_W1_614_1 >= 0
 R2460: - W1_615_0 + abs_W1_615_0 >= 0
 R2461: W1_615_0 + abs_W1_615_0 >= 0
 R2462: - W1_615_1 + abs_W1_615_1 >= 0
 R2463: W1_615_1 + abs_W1_615_1 >= 0
 R2464: - W1_616_0 + abs_W1_616_0 >= 0
 R2465: W1_616_0 + abs_W1_616_0 >= 0
 R2466: - W1_616_1 + abs_W1_616_1 >= 0
 R2467: W1_616_1 + abs_W1_616_1 >= 0
 R2468: - W1_617_0 + abs_W1_617_0 >= 0
 R2469: W1_617_0 + abs_W1_617_0 >= 0
 R2470: - W1_617_1 + abs_W1_617_1 >= 0
 R2471: W1_617_1 + abs_W1_617_1 >= 0
 R2472: - W1_618_0 + abs_W1_618_0 >= 0
 R2473: W1_618_0 + abs_W1_618_0 >= 0
 R2474: - W1_618_1 + abs_W1_618_1 >= 0
 R2475: W1_618_1 + abs_W1_618_1 >= 0
 R2476: - W1_619_0 + abs_W1_619_0 >= 0
 R2477: W1_619_0 + abs_W1_619_0 >= 0
 R2478: - W1_619_1 + abs_W1_619_1 >= 0
 R2479: W1_619_1 + abs_W1_619_1 >= 0
 R2480: - W1_620_0 + abs_W1_620_0 >= 0
 R2481: W1_620_0 + abs_W1_620_0 >= 0
 R2482: - W1_620_1 + abs_W1_620_1 >= 0
 R2483: W1_620_1 + abs_W1_620_1 >= 0
 R2484: - W1_621_0 + abs_W1_621_0 >= 0
 R2485: W1_621_0 + abs_W1_621_0 >= 0
 R2486: - W1_621_1 + abs_W1_621_1 >= 0
 R2487: W1_621_1 + abs_W1_621_1 >= 0
 R2488: - W1_622_0 + abs_W1_622_0 >= 0
 R2489: W1_622_0 + abs_W1_622_0 >= 0
 R2490: - W1_622_1 + abs_W1_622_1 >= 0
 R2491: W1_622_1 + abs_W1_622_1 >= 0
 R2492: - W1_623_0 + abs_W1_623_0 >= 0
 R2493: W1_623_0 + abs_W1_623_0 >= 0
 R2494: - W1_623_1 + abs_W1_623_1 >= 0
 R2495: W1_623_1 + abs_W1_623_1 >= 0
 R2496: - W1_624_0 + abs_W1_624_0 >= 0
 R2497: W1_624_0 + abs_W1_624_0 >= 0
 R2498: - W1_624_1 + abs_W1_624_1 >= 0
 R2499: W1_624_1 + abs_W1_624_1 >= 0
 R2500: - W1_625_0 + abs_W1_625_0 >= 0
 R2501: W1_625_0 + abs_W1_625_0 >= 0
 R2502: - W1_625_1 + abs_W1_625_1 >= 0
 R2503: W1_625_1 + abs_W1_625_1 >= 0
 R2504: - W1_626_0 + abs_W1_626_0 >= 0
 R2505: W1_626_0 + abs_W1_626_0 >= 0
 R2506: - W1_626_1 + abs_W1_626_1 >= 0
 R2507: W1_626_1 + abs_W1_626_1 >= 0
 R2508: - W1_627_0 + abs_W1_627_0 >= 0
 R2509: W1_627_0 + abs_W1_627_0 >= 0
 R2510: - W1_627_1 + abs_W1_627_1 >= 0
 R2511: W1_627_1 + abs_W1_627_1 >= 0
 R2512: - W1_628_0 + abs_W1_628_0 >= 0
 R2513: W1_628_0 + abs_W1_628_0 >= 0
 R2514: - W1_628_1 + abs_W1_628_1 >= 0
 R2515: W1_628_1 + abs_W1_628_1 >= 0
 R2516: - W1_629_0 + abs_W1_629_0 >= 0
 R2517: W1_629_0 + abs_W1_629_0 >= 0
 R2518: - W1_629_1 + abs_W1_629_1 >= 0
 R2519: W1_629_1 + abs_W1_629_1 >= 0
 R2520: - W1_630_0 + abs_W1_630_0 >= 0
 R2521: W1_630_0 + abs_W1_630_0 >= 0
 R2522: - W1_630_1 + abs_W1_630_1 >= 0
 R2523: W1_630_1 + abs_W1_630_1 >= 0
 R2524: - W1_631_0 + abs_W1_631_0 >= 0
 R2525: W1_631_0 + abs_W1_631_0 >= 0
 R2526: - W1_631_1 + abs_W1_631_1 >= 0
 R2527: W1_631_1 + abs_W1_631_1 >= 0
 R2528: - W1_632_0 + abs_W1_632_0 >= 0
 R2529: W1_632_0 + abs_W1_632_0 >= 0
 R2530: - W1_632_1 + abs_W1_632_1 >= 0
 R2531: W1_632_1 + abs_W1_632_1 >= 0
 R2532: - W1_633_0 + abs_W1_633_0 >= 0
 R2533: W1_633_0 + abs_W1_633_0 >= 0
 R2534: - W1_633_1 + abs_W1_633_1 >= 0
 R2535: W1_633_1 + abs_W1_633_1 >= 0
 R2536: - W1_634_0 + abs_W1_634_0 >= 0
 R2537: W1_634_0 + abs_W1_634_0 >= 0
 R2538: - W1_634_1 + abs_W1_634_1 >= 0
 R2539: W1_634_1 + abs_W1_634_1 >= 0
 R2540: - W1_635_0 + abs_W1_635_0 >= 0
 R2541: W1_635_0 + abs_W1_635_0 >= 0
 R2542: - W1_635_1 + abs_W1_635_1 >= 0
 R2543: W1_635_1 + abs_W1_635_1 >= 0
 R2544: - W1_636_0 + abs_W1_636_0 >= 0
 R2545: W1_636_0 + abs_W1_636_0 >= 0
 R2546: - W1_636_1 + abs_W1_636_1 >= 0
 R2547: W1_636_1 + abs_W1_636_1 >= 0
 R2548: - W1_637_0 + abs_W1_637_0 >= 0
 R2549: W1_637_0 + abs_W1_637_0 >= 0
 R2550: - W1_637_1 + abs_W1_637_1 >= 0
 R2551: W1_637_1 + abs_W1_637_1 >= 0
 R2552: - W1_638_0 + abs_W1_638_0 >= 0
 R2553: W1_638_0 + abs_W1_638_0 >= 0
 R2554: - W1_638_1 + abs_W1_638_1 >= 0
 R2555: W1_638_1 + abs_W1_638_1 >= 0
 R2556: - W1_639_0 + abs_W1_639_0 >= 0
 R2557: W1_639_0 + abs_W1_639_0 >= 0
 R2558: - W1_639_1 + abs_W1_639_1 >= 0
 R2559: W1_639_1 + abs_W1_639_1 >= 0
 R2560: - W1_640_0 + abs_W1_640_0 >= 0
 R2561: W1_640_0 + abs_W1_640_0 >= 0
 R2562: - W1_640_1 + abs_W1_640_1 >= 0
 R2563: W1_640_1 + abs_W1_640_1 >= 0
 R2564: - W1_641_0 + abs_W1_641_0 >= 0
 R2565: W1_641_0 + abs_W1_641_0 >= 0
 R2566: - W1_641_1 + abs_W1_641_1 >= 0
 R2567: W1_641_1 + abs_W1_641_1 >= 0
 R2568: - W1_642_0 + abs_W1_642_0 >= 0
 R2569: W1_642_0 + abs_W1_642_0 >= 0
 R2570: - W1_642_1 + abs_W1_642_1 >= 0
 R2571: W1_642_1 + abs_W1_642_1 >= 0
 R2572: - W1_643_0 + abs_W1_643_0 >= 0
 R2573: W1_643_0 + abs_W1_643_0 >= 0
 R2574: - W1_643_1 + abs_W1_643_1 >= 0
 R2575: W1_643_1 + abs_W1_643_1 >= 0
 R2576: - W1_644_0 + abs_W1_644_0 >= 0
 R2577: W1_644_0 + abs_W1_644_0 >= 0
 R2578: - W1_644_1 + abs_W1_644_1 >= 0
 R2579: W1_644_1 + abs_W1_644_1 >= 0
 R2580: - W1_645_0 + abs_W1_645_0 >= 0
 R2581: W1_645_0 + abs_W1_645_0 >= 0
 R2582: - W1_645_1 + abs_W1_645_1 >= 0
 R2583: W1_645_1 + abs_W1_645_1 >= 0
 R2584: - W1_646_0 + abs_W1_646_0 >= 0
 R2585: W1_646_0 + abs_W1_646_0 >= 0
 R2586: - W1_646_1 + abs_W1_646_1 >= 0
 R2587: W1_646_1 + abs_W1_646_1 >= 0
 R2588: - W1_647_0 + abs_W1_647_0 >= 0
 R2589: W1_647_0 + abs_W1_647_0 >= 0
 R2590: - W1_647_1 + abs_W1_647_1 >= 0
 R2591: W1_647_1 + abs_W1_647_1 >= 0
 R2592: - W1_648_0 + abs_W1_648_0 >= 0
 R2593: W1_648_0 + abs_W1_648_0 >= 0
 R2594: - W1_648_1 + abs_W1_648_1 >= 0
 R2595: W1_648_1 + abs_W1_648_1 >= 0
 R2596: - W1_649_0 + abs_W1_649_0 >= 0
 R2597: W1_649_0 + abs_W1_649_0 >= 0
 R2598: - W1_649_1 + abs_W1_649_1 >= 0
 R2599: W1_649_1 + abs_W1_649_1 >= 0
 R2600: - W1_650_0 + abs_W1_650_0 >= 0
 R2601: W1_650_0 + abs_W1_650_0 >= 0
 R2602: - W1_650_1 + abs_W1_650_1 >= 0
 R2603: W1_650_1 + abs_W1_650_1 >= 0
 R2604: - W1_651_0 + abs_W1_651_0 >= 0
 R2605: W1_651_0 + abs_W1_651_0 >= 0
 R2606: - W1_651_1 + abs_W1_651_1 >= 0
 R2607: W1_651_1 + abs_W1_651_1 >= 0
 R2608: - W1_652_0 + abs_W1_652_0 >= 0
 R2609: W1_652_0 + abs_W1_652_0 >= 0
 R2610: - W1_652_1 + abs_W1_652_1 >= 0
 R2611: W1_652_1 + abs_W1_652_1 >= 0
 R2612: - W1_653_0 + abs_W1_653_0 >= 0
 R2613: W1_653_0 + abs_W1_653_0 >= 0
 R2614: - W1_653_1 + abs_W1_653_1 >= 0
 R2615: W1_653_1 + abs_W1_653_1 >= 0
 R2616: - W1_654_0 + abs_W1_654_0 >= 0
 R2617: W1_654_0 + abs_W1_654_0 >= 0
 R2618: - W1_654_1 + abs_W1_654_1 >= 0
 R2619: W1_654_1 + abs_W1_654_1 >= 0
 R2620: - W1_655_0 + abs_W1_655_0 >= 0
 R2621: W1_655_0 + abs_W1_655_0 >= 0
 R2622: - W1_655_1 + abs_W1_655_1 >= 0
 R2623: W1_655_1 + abs_W1_655_1 >= 0
 R2624: - W1_656_0 + abs_W1_656_0 >= 0
 R2625: W1_656_0 + abs_W1_656_0 >= 0
 R2626: - W1_656_1 + abs_W1_656_1 >= 0
 R2627: W1_656_1 + abs_W1_656_1 >= 0
 R2628: - W1_657_0 + abs_W1_657_0 >= 0
 R2629: W1_657_0 + abs_W1_657_0 >= 0
 R2630: - W1_657_1 + abs_W1_657_1 >= 0
 R2631: W1_657_1 + abs_W1_657_1 >= 0
 R2632: - W1_658_0 + abs_W1_658_0 >= 0
 R2633: W1_658_0 + abs_W1_658_0 >= 0
 R2634: - W1_658_1 + abs_W1_658_1 >= 0
 R2635: W1_658_1 + abs_W1_658_1 >= 0
 R2636: - W1_659_0 + abs_W1_659_0 >= 0
 R2637: W1_659_0 + abs_W1_659_0 >= 0
 R2638: - W1_659_1 + abs_W1_659_1 >= 0
 R2639: W1_659_1 + abs_W1_659_1 >= 0
 R2640: - W1_660_0 + abs_W1_660_0 >= 0
 R2641: W1_660_0 + abs_W1_660_0 >= 0
 R2642: - W1_660_1 + abs_W1_660_1 >= 0
 R2643: W1_660_1 + abs_W1_660_1 >= 0
 R2644: - W1_661_0 + abs_W1_661_0 >= 0
 R2645: W1_661_0 + abs_W1_661_0 >= 0
 R2646: - W1_661_1 + abs_W1_661_1 >= 0
 R2647: W1_661_1 + abs_W1_661_1 >= 0
 R2648: - W1_662_0 + abs_W1_662_0 >= 0
 R2649: W1_662_0 + abs_W1_662_0 >= 0
 R2650: - W1_662_1 + abs_W1_662_1 >= 0
 R2651: W1_662_1 + abs_W1_662_1 >= 0
 R2652: - W1_663_0 + abs_W1_663_0 >= 0
 R2653: W1_663_0 + abs_W1_663_0 >= 0
 R2654: - W1_663_1 + abs_W1_663_1 >= 0
 R2655: W1_663_1 + abs_W1_663_1 >= 0
 R2656: - W1_664_0 + abs_W1_664_0 >= 0
 R2657: W1_664_0 + abs_W1_664_0 >= 0
 R2658: - W1_664_1 + abs_W1_664_1 >= 0
 R2659: W1_664_1 + abs_W1_664_1 >= 0
 R2660: - W1_665_0 + abs_W1_665_0 >= 0
 R2661: W1_665_0 + abs_W1_665_0 >= 0
 R2662: - W1_665_1 + abs_W1_665_1 >= 0
 R2663: W1_665_1 + abs_W1_665_1 >= 0
 R2664: - W1_666_0 + abs_W1_666_0 >= 0
 R2665: W1_666_0 + abs_W1_666_0 >= 0
 R2666: - W1_666_1 + abs_W1_666_1 >= 0
 R2667: W1_666_1 + abs_W1_666_1 >= 0
 R2668: - W1_667_0 + abs_W1_667_0 >= 0
 R2669: W1_667_0 + abs_W1_667_0 >= 0
 R2670: - W1_667_1 + abs_W1_667_1 >= 0
 R2671: W1_667_1 + abs_W1_667_1 >= 0
 R2672: - W1_668_0 + abs_W1_668_0 >= 0
 R2673: W1_668_0 + abs_W1_668_0 >= 0
 R2674: - W1_668_1 + abs_W1_668_1 >= 0
 R2675: W1_668_1 + abs_W1_668_1 >= 0
 R2676: - W1_669_0 + abs_W1_669_0 >= 0
 R2677: W1_669_0 + abs_W1_669_0 >= 0
 R2678: - W1_669_1 + abs_W1_669_1 >= 0
 R2679: W1_669_1 + abs_W1_669_1 >= 0
 R2680: - W1_670_0 + abs_W1_670_0 >= 0
 R2681: W1_670_0 + abs_W1_670_0 >= 0
 R2682: - W1_670_1 + abs_W1_670_1 >= 0
 R2683: W1_670_1 + abs_W1_670_1 >= 0
 R2684: - W1_671_0 + abs_W1_671_0 >= 0
 R2685: W1_671_0 + abs_W1_671_0 >= 0
 R2686: - W1_671_1 + abs_W1_671_1 >= 0
 R2687: W1_671_1 + abs_W1_671_1 >= 0
 R2688: - W1_672_0 + abs_W1_672_0 >= 0
 R2689: W1_672_0 + abs_W1_672_0 >= 0
 R2690: - W1_672_1 + abs_W1_672_1 >= 0
 R2691: W1_672_1 + abs_W1_672_1 >= 0
 R2692: - W1_673_0 + abs_W1_673_0 >= 0
 R2693: W1_673_0 + abs_W1_673_0 >= 0
 R2694: - W1_673_1 + abs_W1_673_1 >= 0
 R2695: W1_673_1 + abs_W1_673_1 >= 0
 R2696: - W1_674_0 + abs_W1_674_0 >= 0
 R2697: W1_674_0 + abs_W1_674_0 >= 0
 R2698: - W1_674_1 + abs_W1_674_1 >= 0
 R2699: W1_674_1 + abs_W1_674_1 >= 0
 R2700: - W1_675_0 + abs_W1_675_0 >= 0
 R2701: W1_675_0 + abs_W1_675_0 >= 0
 R2702: - W1_675_1 + abs_W1_675_1 >= 0
 R2703: W1_675_1 + abs_W1_675_1 >= 0
 R2704: - W1_676_0 + abs_W1_676_0 >= 0
 R2705: W1_676_0 + abs_W1_676_0 >= 0
 R2706: - W1_676_1 + abs_W1_676_1 >= 0
 R2707: W1_676_1 + abs_W1_676_1 >= 0
 R2708: - W1_677_0 + abs_W1_677_0 >= 0
 R2709: W1_677_0 + abs_W1_677_0 >= 0
 R2710: - W1_677_1 + abs_W1_677_1 >= 0
 R2711: W1_677_1 + abs_W1_677_1 >= 0
 R2712: - W1_678_0 + abs_W1_678_0 >= 0
 R2713: W1_678_0 + abs_W1_678_0 >= 0
 R2714: - W1_678_1 + abs_W1_678_1 >= 0
 R2715: W1_678_1 + abs_W1_678_1 >= 0
 R2716: - W1_679_0 + abs_W1_679_0 >= 0
 R2717: W1_679_0 + abs_W1_679_0 >= 0
 R2718: - W1_679_1 + abs_W1_679_1 >= 0
 R2719: W1_679_1 + abs_W1_679_1 >= 0
 R2720: - W1_680_0 + abs_W1_680_0 >= 0
 R2721: W1_680_0 + abs_W1_680_0 >= 0
 R2722: - W1_680_1 + abs_W1_680_1 >= 0
 R2723: W1_680_1 + abs_W1_680_1 >= 0
 R2724: - W1_681_0 + abs_W1_681_0 >= 0
 R2725: W1_681_0 + abs_W1_681_0 >= 0
 R2726: - W1_681_1 + abs_W1_681_1 >= 0
 R2727: W1_681_1 + abs_W1_681_1 >= 0
 R2728: - W1_682_0 + abs_W1_682_0 >= 0
 R2729: W1_682_0 + abs_W1_682_0 >= 0
 R2730: - W1_682_1 + abs_W1_682_1 >= 0
 R2731: W1_682_1 + abs_W1_682_1 >= 0
 R2732: - W1_683_0 + abs_W1_683_0 >= 0
 R2733: W1_683_0 + abs_W1_683_0 >= 0
 R2734: - W1_683_1 + abs_W1_683_1 >= 0
 R2735: W1_683_1 + abs_W1_683_1 >= 0
 R2736: - W1_684_0 + abs_W1_684_0 >= 0
 R2737: W1_684_0 + abs_W1_684_0 >= 0
 R2738: - W1_684_1 + abs_W1_684_1 >= 0
 R2739: W1_684_1 + abs_W1_684_1 >= 0
 R2740: - W1_685_0 + abs_W1_685_0 >= 0
 R2741: W1_685_0 + abs_W1_685_0 >= 0
 R2742: - W1_685_1 + abs_W1_685_1 >= 0
 R2743: W1_685_1 + abs_W1_685_1 >= 0
 R2744: - W1_686_0 + abs_W1_686_0 >= 0
 R2745: W1_686_0 + abs_W1_686_0 >= 0
 R2746: - W1_686_1 + abs_W1_686_1 >= 0
 R2747: W1_686_1 + abs_W1_686_1 >= 0
 R2748: - W1_687_0 + abs_W1_687_0 >= 0
 R2749: W1_687_0 + abs_W1_687_0 >= 0
 R2750: - W1_687_1 + abs_W1_687_1 >= 0
 R2751: W1_687_1 + abs_W1_687_1 >= 0
 R2752: - W1_688_0 + abs_W1_688_0 >= 0
 R2753: W1_688_0 + abs_W1_688_0 >= 0
 R2754: - W1_688_1 + abs_W1_688_1 >= 0
 R2755: W1_688_1 + abs_W1_688_1 >= 0
 R2756: - W1_689_0 + abs_W1_689_0 >= 0
 R2757: W1_689_0 + abs_W1_689_0 >= 0
 R2758: - W1_689_1 + abs_W1_689_1 >= 0
 R2759: W1_689_1 + abs_W1_689_1 >= 0
 R2760: - W1_690_0 + abs_W1_690_0 >= 0
 R2761: W1_690_0 + abs_W1_690_0 >= 0
 R2762: - W1_690_1 + abs_W1_690_1 >= 0
 R2763: W1_690_1 + abs_W1_690_1 >= 0
 R2764: - W1_691_0 + abs_W1_691_0 >= 0
 R2765: W1_691_0 + abs_W1_691_0 >= 0
 R2766: - W1_691_1 + abs_W1_691_1 >= 0
 R2767: W1_691_1 + abs_W1_691_1 >= 0
 R2768: - W1_692_0 + abs_W1_692_0 >= 0
 R2769: W1_692_0 + abs_W1_692_0 >= 0
 R2770: - W1_692_1 + abs_W1_692_1 >= 0
 R2771: W1_692_1 + abs_W1_692_1 >= 0
 R2772: - W1_693_0 + abs_W1_693_0 >= 0
 R2773: W1_693_0 + abs_W1_693_0 >= 0
 R2774: - W1_693_1 + abs_W1_693_1 >= 0
 R2775: W1_693_1 + abs_W1_693_1 >= 0
 R2776: - W1_694_0 + abs_W1_694_0 >= 0
 R2777: W1_694_0 + abs_W1_694_0 >= 0
 R2778: - W1_694_1 + abs_W1_694_1 >= 0
 R2779: W1_694_1 + abs_W1_694_1 >= 0
 R2780: - W1_695_0 + abs_W1_695_0 >= 0
 R2781: W1_695_0 + abs_W1_695_0 >= 0
 R2782: - W1_695_1 + abs_W1_695_1 >= 0
 R2783: W1_695_1 + abs_W1_695_1 >= 0
 R2784: - W1_696_0 + abs_W1_696_0 >= 0
 R2785: W1_696_0 + abs_W1_696_0 >= 0
 R2786: - W1_696_1 + abs_W1_696_1 >= 0
 R2787: W1_696_1 + abs_W1_696_1 >= 0
 R2788: - W1_697_0 + abs_W1_697_0 >= 0
 R2789: W1_697_0 + abs_W1_697_0 >= 0
 R2790: - W1_697_1 + abs_W1_697_1 >= 0
 R2791: W1_697_1 + abs_W1_697_1 >= 0
 R2792: - W1_698_0 + abs_W1_698_0 >= 0
 R2793: W1_698_0 + abs_W1_698_0 >= 0
 R2794: - W1_698_1 + abs_W1_698_1 >= 0
 R2795: W1_698_1 + abs_W1_698_1 >= 0
 R2796: - W1_699_0 + abs_W1_699_0 >= 0
 R2797: W1_699_0 + abs_W1_699_0 >= 0
 R2798: - W1_699_1 + abs_W1_699_1 >= 0
 R2799: W1_699_1 + abs_W1_699_1 >= 0
 R2800: - W1_700_0 + abs_W1_700_0 >= 0
 R2801: W1_700_0 + abs_W1_700_0 >= 0
 R2802: - W1_700_1 + abs_W1_700_1 >= 0
 R2803: W1_700_1 + abs_W1_700_1 >= 0
 R2804: - W1_701_0 + abs_W1_701_0 >= 0
 R2805: W1_701_0 + abs_W1_701_0 >= 0
 R2806: - W1_701_1 + abs_W1_701_1 >= 0
 R2807: W1_701_1 + abs_W1_701_1 >= 0
 R2808: - W1_702_0 + abs_W1_702_0 >= 0
 R2809: W1_702_0 + abs_W1_702_0 >= 0
 R2810: - W1_702_1 + abs_W1_702_1 >= 0
 R2811: W1_702_1 + abs_W1_702_1 >= 0
 R2812: - W1_703_0 + abs_W1_703_0 >= 0
 R2813: W1_703_0 + abs_W1_703_0 >= 0
 R2814: - W1_703_1 + abs_W1_703_1 >= 0
 R2815: W1_703_1 + abs_W1_703_1 >= 0
 R2816: - W1_704_0 + abs_W1_704_0 >= 0
 R2817: W1_704_0 + abs_W1_704_0 >= 0
 R2818: - W1_704_1 + abs_W1_704_1 >= 0
 R2819: W1_704_1 + abs_W1_704_1 >= 0
 R2820: - W1_705_0 + abs_W1_705_0 >= 0
 R2821: W1_705_0 + abs_W1_705_0 >= 0
 R2822: - W1_705_1 + abs_W1_705_1 >= 0
 R2823: W1_705_1 + abs_W1_705_1 >= 0
 R2824: - W1_706_0 + abs_W1_706_0 >= 0
 R2825: W1_706_0 + abs_W1_706_0 >= 0
 R2826: - W1_706_1 + abs_W1_706_1 >= 0
 R2827: W1_706_1 + abs_W1_706_1 >= 0
 R2828: - W1_707_0 + abs_W1_707_0 >= 0
 R2829: W1_707_0 + abs_W1_707_0 >= 0
 R2830: - W1_707_1 + abs_W1_707_1 >= 0
 R2831: W1_707_1 + abs_W1_707_1 >= 0
 R2832: - W1_708_0 + abs_W1_708_0 >= 0
 R2833: W1_708_0 + abs_W1_708_0 >= 0
 R2834: - W1_708_1 + abs_W1_708_1 >= 0
 R2835: W1_708_1 + abs_W1_708_1 >= 0
 R2836: - W1_709_0 + abs_W1_709_0 >= 0
 R2837: W1_709_0 + abs_W1_709_0 >= 0
 R2838: - W1_709_1 + abs_W1_709_1 >= 0
 R2839: W1_709_1 + abs_W1_709_1 >= 0
 R2840: - W1_710_0 + abs_W1_710_0 >= 0
 R2841: W1_710_0 + abs_W1_710_0 >= 0
 R2842: - W1_710_1 + abs_W1_710_1 >= 0
 R2843: W1_710_1 + abs_W1_710_1 >= 0
 R2844: - W1_711_0 + abs_W1_711_0 >= 0
 R2845: W1_711_0 + abs_W1_711_0 >= 0
 R2846: - W1_711_1 + abs_W1_711_1 >= 0
 R2847: W1_711_1 + abs_W1_711_1 >= 0
 R2848: - W1_712_0 + abs_W1_712_0 >= 0
 R2849: W1_712_0 + abs_W1_712_0 >= 0
 R2850: - W1_712_1 + abs_W1_712_1 >= 0
 R2851: W1_712_1 + abs_W1_712_1 >= 0
 R2852: - W1_713_0 + abs_W1_713_0 >= 0
 R2853: W1_713_0 + abs_W1_713_0 >= 0
 R2854: - W1_713_1 + abs_W1_713_1 >= 0
 R2855: W1_713_1 + abs_W1_713_1 >= 0
 R2856: - W1_714_0 + abs_W1_714_0 >= 0
 R2857: W1_714_0 + abs_W1_714_0 >= 0
 R2858: - W1_714_1 + abs_W1_714_1 >= 0
 R2859: W1_714_1 + abs_W1_714_1 >= 0
 R2860: - W1_715_0 + abs_W1_715_0 >= 0
 R2861: W1_715_0 + abs_W1_715_0 >= 0
 R2862: - W1_715_1 + abs_W1_715_1 >= 0
 R2863: W1_715_1 + abs_W1_715_1 >= 0
 R2864: - W1_716_0 + abs_W1_716_0 >= 0
 R2865: W1_716_0 + abs_W1_716_0 >= 0
 R2866: - W1_716_1 + abs_W1_716_1 >= 0
 R2867: W1_716_1 + abs_W1_716_1 >= 0
 R2868: - W1_717_0 + abs_W1_717_0 >= 0
 R2869: W1_717_0 + abs_W1_717_0 >= 0
 R2870: - W1_717_1 + abs_W1_717_1 >= 0
 R2871: W1_717_1 + abs_W1_717_1 >= 0
 R2872: - W1_718_0 + abs_W1_718_0 >= 0
 R2873: W1_718_0 + abs_W1_718_0 >= 0
 R2874: - W1_718_1 + abs_W1_718_1 >= 0
 R2875: W1_718_1 + abs_W1_718_1 >= 0
 R2876: - W1_719_0 + abs_W1_719_0 >= 0
 R2877: W1_719_0 + abs_W1_719_0 >= 0
 R2878: - W1_719_1 + abs_W1_719_1 >= 0
 R2879: W1_719_1 + abs_W1_719_1 >= 0
 R2880: - W1_720_0 + abs_W1_720_0 >= 0
 R2881: W1_720_0 + abs_W1_720_0 >= 0
 R2882: - W1_720_1 + abs_W1_720_1 >= 0
 R2883: W1_720_1 + abs_W1_720_1 >= 0
 R2884: - W1_721_0 + abs_W1_721_0 >= 0
 R2885: W1_721_0 + abs_W1_721_0 >= 0
 R2886: - W1_721_1 + abs_W1_721_1 >= 0
 R2887: W1_721_1 + abs_W1_721_1 >= 0
 R2888: - W1_722_0 + abs_W1_722_0 >= 0
 R2889: W1_722_0 + abs_W1_722_0 >= 0
 R2890: - W1_722_1 + abs_W1_722_1 >= 0
 R2891: W1_722_1 + abs_W1_722_1 >= 0
 R2892: - W1_723_0 + abs_W1_723_0 >= 0
 R2893: W1_723_0 + abs_W1_723_0 >= 0
 R2894: - W1_723_1 + abs_W1_723_1 >= 0
 R2895: W1_723_1 + abs_W1_723_1 >= 0
 R2896: - W1_724_0 + abs_W1_724_0 >= 0
 R2897: W1_724_0 + abs_W1_724_0 >= 0
 R2898: - W1_724_1 + abs_W1_724_1 >= 0
 R2899: W1_724_1 + abs_W1_724_1 >= 0
 R2900: - W1_725_0 + abs_W1_725_0 >= 0
 R2901: W1_725_0 + abs_W1_725_0 >= 0
 R2902: - W1_725_1 + abs_W1_725_1 >= 0
 R2903: W1_725_1 + abs_W1_725_1 >= 0
 R2904: - W1_726_0 + abs_W1_726_0 >= 0
 R2905: W1_726_0 + abs_W1_726_0 >= 0
 R2906: - W1_726_1 + abs_W1_726_1 >= 0
 R2907: W1_726_1 + abs_W1_726_1 >= 0
 R2908: - W1_727_0 + abs_W1_727_0 >= 0
 R2909: W1_727_0 + abs_W1_727_0 >= 0
 R2910: - W1_727_1 + abs_W1_727_1 >= 0
 R2911: W1_727_1 + abs_W1_727_1 >= 0
 R2912: - W1_728_0 + abs_W1_728_0 >= 0
 R2913: W1_728_0 + abs_W1_728_0 >= 0
 R2914: - W1_728_1 + abs_W1_728_1 >= 0
 R2915: W1_728_1 + abs_W1_728_1 >= 0
 R2916: - W1_729_0 + abs_W1_729_0 >= 0
 R2917: W1_729_0 + abs_W1_729_0 >= 0
 R2918: - W1_729_1 + abs_W1_729_1 >= 0
 R2919: W1_729_1 + abs_W1_729_1 >= 0
 R2920: - W1_730_0 + abs_W1_730_0 >= 0
 R2921: W1_730_0 + abs_W1_730_0 >= 0
 R2922: - W1_730_1 + abs_W1_730_1 >= 0
 R2923: W1_730_1 + abs_W1_730_1 >= 0
 R2924: - W1_731_0 + abs_W1_731_0 >= 0
 R2925: W1_731_0 + abs_W1_731_0 >= 0
 R2926: - W1_731_1 + abs_W1_731_1 >= 0
 R2927: W1_731_1 + abs_W1_731_1 >= 0
 R2928: - W1_732_0 + abs_W1_732_0 >= 0
 R2929: W1_732_0 + abs_W1_732_0 >= 0
 R2930: - W1_732_1 + abs_W1_732_1 >= 0
 R2931: W1_732_1 + abs_W1_732_1 >= 0
 R2932: - W1_733_0 + abs_W1_733_0 >= 0
 R2933: W1_733_0 + abs_W1_733_0 >= 0
 R2934: - W1_733_1 + abs_W1_733_1 >= 0
 R2935: W1_733_1 + abs_W1_733_1 >= 0
 R2936: - W1_734_0 + abs_W1_734_0 >= 0
 R2937: W1_734_0 + abs_W1_734_0 >= 0
 R2938: - W1_734_1 + abs_W1_734_1 >= 0
 R2939: W1_734_1 + abs_W1_734_1 >= 0
 R2940: - W1_735_0 + abs_W1_735_0 >= 0
 R2941: W1_735_0 + abs_W1_735_0 >= 0
 R2942: - W1_735_1 + abs_W1_735_1 >= 0
 R2943: W1_735_1 + abs_W1_735_1 >= 0
 R2944: - W1_736_0 + abs_W1_736_0 >= 0
 R2945: W1_736_0 + abs_W1_736_0 >= 0
 R2946: - W1_736_1 + abs_W1_736_1 >= 0
 R2947: W1_736_1 + abs_W1_736_1 >= 0
 R2948: - W1_737_0 + abs_W1_737_0 >= 0
 R2949: W1_737_0 + abs_W1_737_0 >= 0
 R2950: - W1_737_1 + abs_W1_737_1 >= 0
 R2951: W1_737_1 + abs_W1_737_1 >= 0
 R2952: - W1_738_0 + abs_W1_738_0 >= 0
 R2953: W1_738_0 + abs_W1_738_0 >= 0
 R2954: - W1_738_1 + abs_W1_738_1 >= 0
 R2955: W1_738_1 + abs_W1_738_1 >= 0
 R2956: - W1_739_0 + abs_W1_739_0 >= 0
 R2957: W1_739_0 + abs_W1_739_0 >= 0
 R2958: - W1_739_1 + abs_W1_739_1 >= 0
 R2959: W1_739_1 + abs_W1_739_1 >= 0
 R2960: - W1_740_0 + abs_W1_740_0 >= 0
 R2961: W1_740_0 + abs_W1_740_0 >= 0
 R2962: - W1_740_1 + abs_W1_740_1 >= 0
 R2963: W1_740_1 + abs_W1_740_1 >= 0
 R2964: - W1_741_0 + abs_W1_741_0 >= 0
 R2965: W1_741_0 + abs_W1_741_0 >= 0
 R2966: - W1_741_1 + abs_W1_741_1 >= 0
 R2967: W1_741_1 + abs_W1_741_1 >= 0
 R2968: - W1_742_0 + abs_W1_742_0 >= 0
 R2969: W1_742_0 + abs_W1_742_0 >= 0
 R2970: - W1_742_1 + abs_W1_742_1 >= 0
 R2971: W1_742_1 + abs_W1_742_1 >= 0
 R2972: - W1_743_0 + abs_W1_743_0 >= 0
 R2973: W1_743_0 + abs_W1_743_0 >= 0
 R2974: - W1_743_1 + abs_W1_743_1 >= 0
 R2975: W1_743_1 + abs_W1_743_1 >= 0
 R2976: - W1_744_0 + abs_W1_744_0 >= 0
 R2977: W1_744_0 + abs_W1_744_0 >= 0
 R2978: - W1_744_1 + abs_W1_744_1 >= 0
 R2979: W1_744_1 + abs_W1_744_1 >= 0
 R2980: - W1_745_0 + abs_W1_745_0 >= 0
 R2981: W1_745_0 + abs_W1_745_0 >= 0
 R2982: - W1_745_1 + abs_W1_745_1 >= 0
 R2983: W1_745_1 + abs_W1_745_1 >= 0
 R2984: - W1_746_0 + abs_W1_746_0 >= 0
 R2985: W1_746_0 + abs_W1_746_0 >= 0
 R2986: - W1_746_1 + abs_W1_746_1 >= 0
 R2987: W1_746_1 + abs_W1_746_1 >= 0
 R2988: - W1_747_0 + abs_W1_747_0 >= 0
 R2989: W1_747_0 + abs_W1_747_0 >= 0
 R2990: - W1_747_1 + abs_W1_747_1 >= 0
 R2991: W1_747_1 + abs_W1_747_1 >= 0
 R2992: - W1_748_0 + abs_W1_748_0 >= 0
 R2993: W1_748_0 + abs_W1_748_0 >= 0
 R2994: - W1_748_1 + abs_W1_748_1 >= 0
 R2995: W1_748_1 + abs_W1_748_1 >= 0
 R2996: - W1_749_0 + abs_W1_749_0 >= 0
 R2997: W1_749_0 + abs_W1_749_0 >= 0
 R2998: - W1_749_1 + abs_W1_749_1 >= 0
 R2999: W1_749_1 + abs_W1_749_1 >= 0
 R3000: - W1_750_0 + abs_W1_750_0 >= 0
 R3001: W1_750_0 + abs_W1_750_0 >= 0
 R3002: - W1_750_1 + abs_W1_750_1 >= 0
 R3003: W1_750_1 + abs_W1_750_1 >= 0
 R3004: - W1_751_0 + abs_W1_751_0 >= 0
 R3005: W1_751_0 + abs_W1_751_0 >= 0
 R3006: - W1_751_1 + abs_W1_751_1 >= 0
 R3007: W1_751_1 + abs_W1_751_1 >= 0
 R3008: - W1_752_0 + abs_W1_752_0 >= 0
 R3009: W1_752_0 + abs_W1_752_0 >= 0
 R3010: - W1_752_1 + abs_W1_752_1 >= 0
 R3011: W1_752_1 + abs_W1_752_1 >= 0
 R3012: - W1_753_0 + abs_W1_753_0 >= 0
 R3013: W1_753_0 + abs_W1_753_0 >= 0
 R3014: - W1_753_1 + abs_W1_753_1 >= 0
 R3015: W1_753_1 + abs_W1_753_1 >= 0
 R3016: - W1_754_0 + abs_W1_754_0 >= 0
 R3017: W1_754_0 + abs_W1_754_0 >= 0
 R3018: - W1_754_1 + abs_W1_754_1 >= 0
 R3019: W1_754_1 + abs_W1_754_1 >= 0
 R3020: - W1_755_0 + abs_W1_755_0 >= 0
 R3021: W1_755_0 + abs_W1_755_0 >= 0
 R3022: - W1_755_1 + abs_W1_755_1 >= 0
 R3023: W1_755_1 + abs_W1_755_1 >= 0
 R3024: - W1_756_0 + abs_W1_756_0 >= 0
 R3025: W1_756_0 + abs_W1_756_0 >= 0
 R3026: - W1_756_1 + abs_W1_756_1 >= 0
 R3027: W1_756_1 + abs_W1_756_1 >= 0
 R3028: - W1_757_0 + abs_W1_757_0 >= 0
 R3029: W1_757_0 + abs_W1_757_0 >= 0
 R3030: - W1_757_1 + abs_W1_757_1 >= 0
 R3031: W1_757_1 + abs_W1_757_1 >= 0
 R3032: - W1_758_0 + abs_W1_758_0 >= 0
 R3033: W1_758_0 + abs_W1_758_0 >= 0
 R3034: - W1_758_1 + abs_W1_758_1 >= 0
 R3035: W1_758_1 + abs_W1_758_1 >= 0
 R3036: - W1_759_0 + abs_W1_759_0 >= 0
 R3037: W1_759_0 + abs_W1_759_0 >= 0
 R3038: - W1_759_1 + abs_W1_759_1 >= 0
 R3039: W1_759_1 + abs_W1_759_1 >= 0
 R3040: - W1_760_0 + abs_W1_760_0 >= 0
 R3041: W1_760_0 + abs_W1_760_0 >= 0
 R3042: - W1_760_1 + abs_W1_760_1 >= 0
 R3043: W1_760_1 + abs_W1_760_1 >= 0
 R3044: - W1_761_0 + abs_W1_761_0 >= 0
 R3045: W1_761_0 + abs_W1_761_0 >= 0
 R3046: - W1_761_1 + abs_W1_761_1 >= 0
 R3047: W1_761_1 + abs_W1_761_1 >= 0
 R3048: - W1_762_0 + abs_W1_762_0 >= 0
 R3049: W1_762_0 + abs_W1_762_0 >= 0
 R3050: - W1_762_1 + abs_W1_762_1 >= 0
 R3051: W1_762_1 + abs_W1_762_1 >= 0
 R3052: - W1_763_0 + abs_W1_763_0 >= 0
 R3053: W1_763_0 + abs_W1_763_0 >= 0
 R3054: - W1_763_1 + abs_W1_763_1 >= 0
 R3055: W1_763_1 + abs_W1_763_1 >= 0
 R3056: - W1_764_0 + abs_W1_764_0 >= 0
 R3057: W1_764_0 + abs_W1_764_0 >= 0
 R3058: - W1_764_1 + abs_W1_764_1 >= 0
 R3059: W1_764_1 + abs_W1_764_1 >= 0
 R3060: - W1_765_0 + abs_W1_765_0 >= 0
 R3061: W1_765_0 + abs_W1_765_0 >= 0
 R3062: - W1_765_1 + abs_W1_765_1 >= 0
 R3063: W1_765_1 + abs_W1_765_1 >= 0
 R3064: - W1_766_0 + abs_W1_766_0 >= 0
 R3065: W1_766_0 + abs_W1_766_0 >= 0
 R3066: - W1_766_1 + abs_W1_766_1 >= 0
 R3067: W1_766_1 + abs_W1_766_1 >= 0
 R3068: - W1_767_0 + abs_W1_767_0 >= 0
 R3069: W1_767_0 + abs_W1_767_0 >= 0
 R3070: - W1_767_1 + abs_W1_767_1 >= 0
 R3071: W1_767_1 + abs_W1_767_1 >= 0
 R3072: - W1_768_0 + abs_W1_768_0 >= 0
 R3073: W1_768_0 + abs_W1_768_0 >= 0
 R3074: - W1_768_1 + abs_W1_768_1 >= 0
 R3075: W1_768_1 + abs_W1_768_1 >= 0
 R3076: - W1_769_0 + abs_W1_769_0 >= 0
 R3077: W1_769_0 + abs_W1_769_0 >= 0
 R3078: - W1_769_1 + abs_W1_769_1 >= 0
 R3079: W1_769_1 + abs_W1_769_1 >= 0
 R3080: - W1_770_0 + abs_W1_770_0 >= 0
 R3081: W1_770_0 + abs_W1_770_0 >= 0
 R3082: - W1_770_1 + abs_W1_770_1 >= 0
 R3083: W1_770_1 + abs_W1_770_1 >= 0
 R3084: - W1_771_0 + abs_W1_771_0 >= 0
 R3085: W1_771_0 + abs_W1_771_0 >= 0
 R3086: - W1_771_1 + abs_W1_771_1 >= 0
 R3087: W1_771_1 + abs_W1_771_1 >= 0
 R3088: - W1_772_0 + abs_W1_772_0 >= 0
 R3089: W1_772_0 + abs_W1_772_0 >= 0
 R3090: - W1_772_1 + abs_W1_772_1 >= 0
 R3091: W1_772_1 + abs_W1_772_1 >= 0
 R3092: - W1_773_0 + abs_W1_773_0 >= 0
 R3093: W1_773_0 + abs_W1_773_0 >= 0
 R3094: - W1_773_1 + abs_W1_773_1 >= 0
 R3095: W1_773_1 + abs_W1_773_1 >= 0
 R3096: - W1_774_0 + abs_W1_774_0 >= 0
 R3097: W1_774_0 + abs_W1_774_0 >= 0
 R3098: - W1_774_1 + abs_W1_774_1 >= 0
 R3099: W1_774_1 + abs_W1_774_1 >= 0
 R3100: - W1_775_0 + abs_W1_775_0 >= 0
 R3101: W1_775_0 + abs_W1_775_0 >= 0
 R3102: - W1_775_1 + abs_W1_775_1 >= 0
 R3103: W1_775_1 + abs_W1_775_1 >= 0
 R3104: - W1_776_0 + abs_W1_776_0 >= 0
 R3105: W1_776_0 + abs_W1_776_0 >= 0
 R3106: - W1_776_1 + abs_W1_776_1 >= 0
 R3107: W1_776_1 + abs_W1_776_1 >= 0
 R3108: - W1_777_0 + abs_W1_777_0 >= 0
 R3109: W1_777_0 + abs_W1_777_0 >= 0
 R3110: - W1_777_1 + abs_W1_777_1 >= 0
 R3111: W1_777_1 + abs_W1_777_1 >= 0
 R3112: - W1_778_0 + abs_W1_778_0 >= 0
 R3113: W1_778_0 + abs_W1_778_0 >= 0
 R3114: - W1_778_1 + abs_W1_778_1 >= 0
 R3115: W1_778_1 + abs_W1_778_1 >= 0
 R3116: - W1_779_0 + abs_W1_779_0 >= 0
 R3117: W1_779_0 + abs_W1_779_0 >= 0
 R3118: - W1_779_1 + abs_W1_779_1 >= 0
 R3119: W1_779_1 + abs_W1_779_1 >= 0
 R3120: - W1_780_0 + abs_W1_780_0 >= 0
 R3121: W1_780_0 + abs_W1_780_0 >= 0
 R3122: - W1_780_1 + abs_W1_780_1 >= 0
 R3123: W1_780_1 + abs_W1_780_1 >= 0
 R3124: - W1_781_0 + abs_W1_781_0 >= 0
 R3125: W1_781_0 + abs_W1_781_0 >= 0
 R3126: - W1_781_1 + abs_W1_781_1 >= 0
 R3127: W1_781_1 + abs_W1_781_1 >= 0
 R3128: - W1_782_0 + abs_W1_782_0 >= 0
 R3129: W1_782_0 + abs_W1_782_0 >= 0
 R3130: - W1_782_1 + abs_W1_782_1 >= 0
 R3131: W1_782_1 + abs_W1_782_1 >= 0
 R3132: - W1_783_0 + abs_W1_783_0 >= 0
 R3133: W1_783_0 + abs_W1_783_0 >= 0
 R3134: - W1_783_1 + abs_W1_783_1 >= 0
 R3135: W1_783_1 + abs_W1_783_1 >= 0
 R3136: - W1_784_0 + abs_W1_784_0 >= 0
 R3137: W1_784_0 + abs_W1_784_0 >= 0
 R3138: - W1_784_1 + abs_W1_784_1 >= 0
 R3139: W1_784_1 + abs_W1_784_1 >= 0
 sign_1_pkj_pos_0_0: W1_0_0 + 0.1058823529411765 W1_137_0
   + 0.0862745098039216 W1_138_0 + 0.3490196078431372 W1_164_0
   + 0.9137254901960784 W1_165_0 + 0.6941176470588235 W1_166_0
   + 0.1921568627450981 W1_191_0 + 0.984313725490196 W1_192_0
   + 0.9921568627450981 W1_193_0 + 0.803921568627451 W1_194_0
   + 0.2274509803921569 W1_218_0 + 0.9254901960784314 W1_219_0
   + 0.9921568627450981 W1_220_0 + 0.7568627450980392 W1_221_0
   + 0.2313725490196079 W1_222_0 + 0.5333333333333333 W1_245_0
   + 0.9137254901960784 W1_246_0 + 0.9921568627450981 W1_247_0
   + 0.4470588235294118 W1_248_0 + 0.0745098039215686 W1_249_0
   + 0.1686274509803922 W1_263_0 + 0.8313725490196079 W1_264_0
   + 0.1803921568627451 W1_265_0 + 0.5411764705882353 W1_272_0
   + 0.9882352941176471 W1_273_0 + 0.984313725490196 W1_274_0
   + 0.7803921568627451 W1_275_0 + 0.0117647058823529 W1_276_0
   + 0.1882352941176471 W1_290_0 + 0.8980392156862745 W1_291_0
   + 0.8862745098039215 W1_292_0 + 0.1450980392156863 W1_293_0
   + 0.0470588235294118 W1_299_0 + 0.8431372549019608 W1_300_0
   + 0.9921568627450981 W1_301_0 + 0.6549019607843137 W1_302_0
   + 0.3098039215686275 W1_317_0 + 0.9019607843137255 W1_318_0
   + 0.7372549019607844 W1_319_0 + 0.1686274509803922 W1_320_0
   + 0.0666666666666667 W1_326_0 + 0.8196078431372549 W1_327_0
   + 0.9921568627450981 W1_328_0 + 0.7647058823529411 W1_329_0
   + 0.0745098039215686 W1_330_0 + 0.3019607843137255 W1_344_0
   + 0.984313725490196 W1_345_0 + 0.7843137254901961 W1_346_0
   + 0.0235294117647059 W1_347_0 + 0.1803921568627451 W1_353_0
   + 0.8941176470588236 W1_354_0 + 0.9921568627450981 W1_355_0
   + 0.596078431372549 W1_356_0 + 0.0549019607843137 W1_357_0
   + 0.1254901960784314 W1_371_0 + 0.7803921568627451 W1_372_0
   + 0.4313725490196079 W1_373_0 + 0.0470588235294118 W1_380_0
   + 0.6784313725490196 W1_381_0 + 0.9921568627450981 W1_382_0
   + 0.5725490196078431 W1_383_0 + 0.0705882352941176 W1_384_0
   + 0.7254901960784313 W1_399_0 + 0.8862745098039215 W1_400_0
   + 0.0823529411764706 W1_401_0 + 0.0235294117647059 W1_407_0
   + 0.6784313725490196 W1_408_0 + 0.9921568627450981 W1_409_0
   + 0.9921568627450981 W1_410_0 + 0.4941176470588236 W1_411_0
   + 0.996078431372549 W1_427_0 + 0.6941176470588235 W1_428_0
   + 0.00392156862745098 W1_432_0 + 0.0862745098039216 W1_433_0
   + 0.2313725490196079 W1_434_0 + 0.9019607843137255 W1_435_0
   + 0.9921568627450981 W1_436_0 + 0.9921568627450981 W1_437_0
   + 0.9882352941176471 W1_438_0 + 0.6941176470588235 W1_439_0
   + 0.1843137254901961 W1_440_0 + 0.996078431372549 W1_455_0
   + 0.8941176470588236 W1_456_0 + 0.6588235294117647 W1_457_0
   + 0.6588235294117647 W1_458_0 + 0.6588235294117647 W1_459_0
   + 0.6705882352941176 W1_460_0 + 0.9921568627450981 W1_461_0
   + 0.9921568627450981 W1_462_0 + 0.9921568627450981 W1_463_0
   + 0.9921568627450981 W1_464_0 + 0.7529411764705882 W1_465_0
   + 0.3098039215686275 W1_466_0 + 0.8352941176470589 W1_483_0
   + 0.9921568627450981 W1_484_0 + 0.9921568627450981 W1_485_0
   + 0.9921568627450981 W1_486_0 + 0.9921568627450981 W1_487_0
   + 0.9921568627450981 W1_488_0 + 0.9921568627450981 W1_489_0
   + 0.9921568627450981 W1_490_0 + 0.803921568627451 W1_491_0
   + 0.3411764705882353 W1_492_0 + 0.1215686274509804 W1_493_0
   + 0.0235294117647059 W1_511_0 + 0.1686274509803922 W1_512_0
   + 0.4666666666666667 W1_513_0 + 0.4666666666666667 W1_514_0
   + 0.8588235294117647 W1_515_0 + 0.9921568627450981 W1_516_0
   + 0.9921568627450981 W1_517_0 + 0.7647058823529411 W1_518_0
   + 0.0549019607843137 W1_519_0 + 0.0470588235294118 W1_542_0
   + 0.807843137254902 W1_543_0 + 0.9921568627450981 W1_544_0
   + 0.8627450980392157 W1_545_0 + 0.0745098039215686 W1_546_0
   + 0.0196078431372549 W1_569_0 + 0.8549019607843137 W1_570_0
   + 0.9921568627450981 W1_571_0 + 0.4352941176470588 W1_572_0
   + 0.1372549019607843 W1_573_0 + 0.4941176470588236 W1_597_0
   + 0.9725490196078431 W1_598_0 + 0.4156862745098039 W1_599_0
   + 0.00392156862745098 W1_600_0 + 0.6274509803921569 W1_625_0
   + 0.4156862745098039 W1_626_0 - 20 sign_inner_0_0 >= -19.999
 sign_0_pkj_neg_0_0: W1_0_0 + 0.1058823529411765 W1_137_0
   + 0.0862745098039216 W1_138_0 + 0.3490196078431372 W1_164_0
   + 0.9137254901960784 W1_165_0 + 0.6941176470588235 W1_166_0
   + 0.1921568627450981 W1_191_0 + 0.984313725490196 W1_192_0
   + 0.9921568627450981 W1_193_0 + 0.803921568627451 W1_194_0
   + 0.2274509803921569 W1_218_0 + 0.9254901960784314 W1_219_0
   + 0.9921568627450981 W1_220_0 + 0.7568627450980392 W1_221_0
   + 0.2313725490196079 W1_222_0 + 0.5333333333333333 W1_245_0
   + 0.9137254901960784 W1_246_0 + 0.9921568627450981 W1_247_0
   + 0.4470588235294118 W1_248_0 + 0.0745098039215686 W1_249_0
   + 0.1686274509803922 W1_263_0 + 0.8313725490196079 W1_264_0
   + 0.1803921568627451 W1_265_0 + 0.5411764705882353 W1_272_0
   + 0.9882352941176471 W1_273_0 + 0.984313725490196 W1_274_0
   + 0.7803921568627451 W1_275_0 + 0.0117647058823529 W1_276_0
   + 0.1882352941176471 W1_290_0 + 0.8980392156862745 W1_291_0
   + 0.8862745098039215 W1_292_0 + 0.1450980392156863 W1_293_0
   + 0.0470588235294118 W1_299_0 + 0.8431372549019608 W1_300_0
   + 0.9921568627450981 W1_301_0 + 0.6549019607843137 W1_302_0
   + 0.3098039215686275 W1_317_0 + 0.9019607843137255 W1_318_0
   + 0.7372549019607844 W1_319_0 + 0.1686274509803922 W1_320_0
   + 0.0666666666666667 W1_326_0 + 0.8196078431372549 W1_327_0
   + 0.9921568627450981 W1_328_0 + 0.7647058823529411 W1_329_0
   + 0.0745098039215686 W1_330_0 + 0.3019607843137255 W1_344_0
   + 0.984313725490196 W1_345_0 + 0.7843137254901961 W1_346_0
   + 0.0235294117647059 W1_347_0 + 0.1803921568627451 W1_353_0
   + 0.8941176470588236 W1_354_0 + 0.9921568627450981 W1_355_0
   + 0.596078431372549 W1_356_0 + 0.0549019607843137 W1_357_0
   + 0.1254901960784314 W1_371_0 + 0.7803921568627451 W1_372_0
   + 0.4313725490196079 W1_373_0 + 0.0470588235294118 W1_380_0
   + 0.6784313725490196 W1_381_0 + 0.9921568627450981 W1_382_0
   + 0.5725490196078431 W1_383_0 + 0.0705882352941176 W1_384_0
   + 0.7254901960784313 W1_399_0 + 0.8862745098039215 W1_400_0
   + 0.0823529411764706 W1_401_0 + 0.0235294117647059 W1_407_0
   + 0.6784313725490196 W1_408_0 + 0.9921568627450981 W1_409_0
   + 0.9921568627450981 W1_410_0 + 0.4941176470588236 W1_411_0
   + 0.996078431372549 W1_427_0 + 0.6941176470588235 W1_428_0
   + 0.00392156862745098 W1_432_0 + 0.0862745098039216 W1_433_0
   + 0.2313725490196079 W1_434_0 + 0.9019607843137255 W1_435_0
   + 0.9921568627450981 W1_436_0 + 0.9921568627450981 W1_437_0
   + 0.9882352941176471 W1_438_0 + 0.6941176470588235 W1_439_0
   + 0.1843137254901961 W1_440_0 + 0.996078431372549 W1_455_0
   + 0.8941176470588236 W1_456_0 + 0.6588235294117647 W1_457_0
   + 0.6588235294117647 W1_458_0 + 0.6588235294117647 W1_459_0
   + 0.6705882352941176 W1_460_0 + 0.9921568627450981 W1_461_0
   + 0.9921568627450981 W1_462_0 + 0.9921568627450981 W1_463_0
   + 0.9921568627450981 W1_464_0 + 0.7529411764705882 W1_465_0
   + 0.3098039215686275 W1_466_0 + 0.8352941176470589 W1_483_0
   + 0.9921568627450981 W1_484_0 + 0.9921568627450981 W1_485_0
   + 0.9921568627450981 W1_486_0 + 0.9921568627450981 W1_487_0
   + 0.9921568627450981 W1_488_0 + 0.9921568627450981 W1_489_0
   + 0.9921568627450981 W1_490_0 + 0.803921568627451 W1_491_0
   + 0.3411764705882353 W1_492_0 + 0.1215686274509804 W1_493_0
   + 0.0235294117647059 W1_511_0 + 0.1686274509803922 W1_512_0
   + 0.4666666666666667 W1_513_0 + 0.4666666666666667 W1_514_0
   + 0.8588235294117647 W1_515_0 + 0.9921568627450981 W1_516_0
   + 0.9921568627450981 W1_517_0 + 0.7647058823529411 W1_518_0
   + 0.0549019607843137 W1_519_0 + 0.0470588235294118 W1_542_0
   + 0.807843137254902 W1_543_0 + 0.9921568627450981 W1_544_0
   + 0.8627450980392157 W1_545_0 + 0.0745098039215686 W1_546_0
   + 0.0196078431372549 W1_569_0 + 0.8549019607843137 W1_570_0
   + 0.9921568627450981 W1_571_0 + 0.4352941176470588 W1_572_0
   + 0.1372549019607843 W1_573_0 + 0.4941176470588236 W1_597_0
   + 0.9725490196078431 W1_598_0 + 0.4156862745098039 W1_599_0
   + 0.00392156862745098 W1_600_0 + 0.6274509803921569 W1_625_0
   + 0.4156862745098039 W1_626_0 - 20 sign_inner_0_0 <= 0
 sign_1_pkj_pos_0_1: W1_0_1 + 0.1058823529411765 W1_137_1
   + 0.0862745098039216 W1_138_1 + 0.3490196078431372 W1_164_1
   + 0.9137254901960784 W1_165_1 + 0.6941176470588235 W1_166_1
   + 0.1921568627450981 W1_191_1 + 0.984313725490196 W1_192_1
   + 0.9921568627450981 W1_193_1 + 0.803921568627451 W1_194_1
   + 0.2274509803921569 W1_218_1 + 0.9254901960784314 W1_219_1
   + 0.9921568627450981 W1_220_1 + 0.7568627450980392 W1_221_1
   + 0.2313725490196079 W1_222_1 + 0.5333333333333333 W1_245_1
   + 0.9137254901960784 W1_246_1 + 0.9921568627450981 W1_247_1
   + 0.4470588235294118 W1_248_1 + 0.0745098039215686 W1_249_1
   + 0.1686274509803922 W1_263_1 + 0.8313725490196079 W1_264_1
   + 0.1803921568627451 W1_265_1 + 0.5411764705882353 W1_272_1
   + 0.9882352941176471 W1_273_1 + 0.984313725490196 W1_274_1
   + 0.7803921568627451 W1_275_1 + 0.0117647058823529 W1_276_1
   + 0.1882352941176471 W1_290_1 + 0.8980392156862745 W1_291_1
   + 0.8862745098039215 W1_292_1 + 0.1450980392156863 W1_293_1
   + 0.0470588235294118 W1_299_1 + 0.8431372549019608 W1_300_1
   + 0.9921568627450981 W1_301_1 + 0.6549019607843137 W1_302_1
   + 0.3098039215686275 W1_317_1 + 0.9019607843137255 W1_318_1
   + 0.7372549019607844 W1_319_1 + 0.1686274509803922 W1_320_1
   + 0.0666666666666667 W1_326_1 + 0.8196078431372549 W1_327_1
   + 0.9921568627450981 W1_328_1 + 0.7647058823529411 W1_329_1
   + 0.0745098039215686 W1_330_1 + 0.3019607843137255 W1_344_1
   + 0.984313725490196 W1_345_1 + 0.7843137254901961 W1_346_1
   + 0.0235294117647059 W1_347_1 + 0.1803921568627451 W1_353_1
   + 0.8941176470588236 W1_354_1 + 0.9921568627450981 W1_355_1
   + 0.596078431372549 W1_356_1 + 0.0549019607843137 W1_357_1
   + 0.1254901960784314 W1_371_1 + 0.7803921568627451 W1_372_1
   + 0.4313725490196079 W1_373_1 + 0.0470588235294118 W1_380_1
   + 0.6784313725490196 W1_381_1 + 0.9921568627450981 W1_382_1
   + 0.5725490196078431 W1_383_1 + 0.0705882352941176 W1_384_1
   + 0.7254901960784313 W1_399_1 + 0.8862745098039215 W1_400_1
   + 0.0823529411764706 W1_401_1 + 0.0235294117647059 W1_407_1
   + 0.6784313725490196 W1_408_1 + 0.9921568627450981 W1_409_1
   + 0.9921568627450981 W1_410_1 + 0.4941176470588236 W1_411_1
   + 0.996078431372549 W1_427_1 + 0.6941176470588235 W1_428_1
   + 0.00392156862745098 W1_432_1 + 0.0862745098039216 W1_433_1
   + 0.2313725490196079 W1_434_1 + 0.9019607843137255 W1_435_1
   + 0.9921568627450981 W1_436_1 + 0.9921568627450981 W1_437_1
   + 0.9882352941176471 W1_438_1 + 0.6941176470588235 W1_439_1
   + 0.1843137254901961 W1_440_1 + 0.996078431372549 W1_455_1
   + 0.8941176470588236 W1_456_1 + 0.6588235294117647 W1_457_1
   + 0.6588235294117647 W1_458_1 + 0.6588235294117647 W1_459_1
   + 0.6705882352941176 W1_460_1 + 0.9921568627450981 W1_461_1
   + 0.9921568627450981 W1_462_1 + 0.9921568627450981 W1_463_1
   + 0.9921568627450981 W1_464_1 + 0.7529411764705882 W1_465_1
   + 0.3098039215686275 W1_466_1 + 0.8352941176470589 W1_483_1
   + 0.9921568627450981 W1_484_1 + 0.9921568627450981 W1_485_1
   + 0.9921568627450981 W1_486_1 + 0.9921568627450981 W1_487_1
   + 0.9921568627450981 W1_488_1 + 0.9921568627450981 W1_489_1
   + 0.9921568627450981 W1_490_1 + 0.803921568627451 W1_491_1
   + 0.3411764705882353 W1_492_1 + 0.1215686274509804 W1_493_1
   + 0.0235294117647059 W1_511_1 + 0.1686274509803922 W1_512_1
   + 0.4666666666666667 W1_513_1 + 0.4666666666666667 W1_514_1
   + 0.8588235294117647 W1_515_1 + 0.9921568627450981 W1_516_1
   + 0.9921568627450981 W1_517_1 + 0.7647058823529411 W1_518_1
   + 0.0549019607843137 W1_519_1 + 0.0470588235294118 W1_542_1
   + 0.807843137254902 W1_543_1 + 0.9921568627450981 W1_544_1
   + 0.8627450980392157 W1_545_1 + 0.0745098039215686 W1_546_1
   + 0.0196078431372549 W1_569_1 + 0.8549019607843137 W1_570_1
   + 0.9921568627450981 W1_571_1 + 0.4352941176470588 W1_572_1
   + 0.1372549019607843 W1_573_1 + 0.4941176470588236 W1_597_1
   + 0.9725490196078431 W1_598_1 + 0.4156862745098039 W1_599_1
   + 0.00392156862745098 W1_600_1 + 0.6274509803921569 W1_625_1
   + 0.4156862745098039 W1_626_1 - 20 sign_inner_0_1 >= -19.999
 sign_0_pkj_neg_0_1: W1_0_1 + 0.1058823529411765 W1_137_1
   + 0.0862745098039216 W1_138_1 + 0.3490196078431372 W1_164_1
   + 0.9137254901960784 W1_165_1 + 0.6941176470588235 W1_166_1
   + 0.1921568627450981 W1_191_1 + 0.984313725490196 W1_192_1
   + 0.9921568627450981 W1_193_1 + 0.803921568627451 W1_194_1
   + 0.2274509803921569 W1_218_1 + 0.9254901960784314 W1_219_1
   + 0.9921568627450981 W1_220_1 + 0.7568627450980392 W1_221_1
   + 0.2313725490196079 W1_222_1 + 0.5333333333333333 W1_245_1
   + 0.9137254901960784 W1_246_1 + 0.9921568627450981 W1_247_1
   + 0.4470588235294118 W1_248_1 + 0.0745098039215686 W1_249_1
   + 0.1686274509803922 W1_263_1 + 0.8313725490196079 W1_264_1
   + 0.1803921568627451 W1_265_1 + 0.5411764705882353 W1_272_1
   + 0.9882352941176471 W1_273_1 + 0.984313725490196 W1_274_1
   + 0.7803921568627451 W1_275_1 + 0.0117647058823529 W1_276_1
   + 0.1882352941176471 W1_290_1 + 0.8980392156862745 W1_291_1
   + 0.8862745098039215 W1_292_1 + 0.1450980392156863 W1_293_1
   + 0.0470588235294118 W1_299_1 + 0.8431372549019608 W1_300_1
   + 0.9921568627450981 W1_301_1 + 0.6549019607843137 W1_302_1
   + 0.3098039215686275 W1_317_1 + 0.9019607843137255 W1_318_1
   + 0.7372549019607844 W1_319_1 + 0.1686274509803922 W1_320_1
   + 0.0666666666666667 W1_326_1 + 0.8196078431372549 W1_327_1
   + 0.9921568627450981 W1_328_1 + 0.7647058823529411 W1_329_1
   + 0.0745098039215686 W1_330_1 + 0.3019607843137255 W1_344_1
   + 0.984313725490196 W1_345_1 + 0.7843137254901961 W1_346_1
   + 0.0235294117647059 W1_347_1 + 0.1803921568627451 W1_353_1
   + 0.8941176470588236 W1_354_1 + 0.9921568627450981 W1_355_1
   + 0.596078431372549 W1_356_1 + 0.0549019607843137 W1_357_1
   + 0.1254901960784314 W1_371_1 + 0.7803921568627451 W1_372_1
   + 0.4313725490196079 W1_373_1 + 0.0470588235294118 W1_380_1
   + 0.6784313725490196 W1_381_1 + 0.9921568627450981 W1_382_1
   + 0.5725490196078431 W1_383_1 + 0.0705882352941176 W1_384_1
   + 0.7254901960784313 W1_399_1 + 0.8862745098039215 W1_400_1
   + 0.0823529411764706 W1_401_1 + 0.0235294117647059 W1_407_1
   + 0.6784313725490196 W1_408_1 + 0.9921568627450981 W1_409_1
   + 0.9921568627450981 W1_410_1 + 0.4941176470588236 W1_411_1
   + 0.996078431372549 W1_427_1 + 0.6941176470588235 W1_428_1
   + 0.00392156862745098 W1_432_1 + 0.0862745098039216 W1_433_1
   + 0.2313725490196079 W1_434_1 + 0.9019607843137255 W1_435_1
   + 0.9921568627450981 W1_436_1 + 0.9921568627450981 W1_437_1
   + 0.9882352941176471 W1_438_1 + 0.6941176470588235 W1_439_1
   + 0.1843137254901961 W1_440_1 + 0.996078431372549 W1_455_1
   + 0.8941176470588236 W1_456_1 + 0.6588235294117647 W1_457_1
   + 0.6588235294117647 W1_458_1 + 0.6588235294117647 W1_459_1
   + 0.6705882352941176 W1_460_1 + 0.9921568627450981 W1_461_1
   + 0.9921568627450981 W1_462_1 + 0.9921568627450981 W1_463_1
   + 0.9921568627450981 W1_464_1 + 0.7529411764705882 W1_465_1
   + 0.3098039215686275 W1_466_1 + 0.8352941176470589 W1_483_1
   + 0.9921568627450981 W1_484_1 + 0.9921568627450981 W1_485_1
   + 0.9921568627450981 W1_486_1 + 0.9921568627450981 W1_487_1
   + 0.9921568627450981 W1_488_1 + 0.9921568627450981 W1_489_1
   + 0.9921568627450981 W1_490_1 + 0.803921568627451 W1_491_1
   + 0.3411764705882353 W1_492_1 + 0.1215686274509804 W1_493_1
   + 0.0235294117647059 W1_511_1 + 0.1686274509803922 W1_512_1
   + 0.4666666666666667 W1_513_1 + 0.4666666666666667 W1_514_1
   + 0.8588235294117647 W1_515_1 + 0.9921568627450981 W1_516_1
   + 0.9921568627450981 W1_517_1 + 0.7647058823529411 W1_518_1
   + 0.0549019607843137 W1_519_1 + 0.0470588235294118 W1_542_1
   + 0.807843137254902 W1_543_1 + 0.9921568627450981 W1_544_1
   + 0.8627450980392157 W1_545_1 + 0.0745098039215686 W1_546_1
   + 0.0196078431372549 W1_569_1 + 0.8549019607843137 W1_570_1
   + 0.9921568627450981 W1_571_1 + 0.4352941176470588 W1_572_1
   + 0.1372549019607843 W1_573_1 + 0.4941176470588236 W1_597_1
   + 0.9725490196078431 W1_598_1 + 0.4156862745098039 W1_599_1
   + 0.00392156862745098 W1_600_1 + 0.6274509803921569 W1_625_1
   + 0.4156862745098039 W1_626_1 - 20 sign_inner_0_1 <= 0
 sign_1_pkj_pos_1_0: W1_0_0 + 0.3176470588235294 W1_178_0
   + 0.7843137254901961 W1_179_0 + 0.7215686274509804 W1_180_0
   + 0.2627450980392157 W1_181_0 + 0.4431372549019608 W1_188_0
   + 0.9333333333333333 W1_189_0 + 0.8705882352941177 W1_190_0
   + 0.1372549019607843 W1_191_0 + 0.6784313725490196 W1_206_0
   + 0.996078431372549 W1_207_0 + 0.996078431372549 W1_208_0
   + 0.5647058823529412 W1_209_0 + 0.0117647058823529 W1_214_0
   + 0.6431372549019608 W1_215_0 + 0.996078431372549 W1_216_0
   + 0.996078431372549 W1_217_0 + 0.996078431372549 W1_218_0
   + 0.2941176470588235 W1_219_0 + 0.2235294117647059 W1_234_0
   + 0.996078431372549 W1_235_0 + 0.996078431372549 W1_236_0
   + 0.403921568627451 W1_237_0 + 0.1921568627450981 W1_242_0
   + 0.996078431372549 W1_243_0 + 0.996078431372549 W1_244_0
   + 0.7215686274509804 W1_245_0 + 0.1607843137254902 W1_246_0
   + 0.0470588235294118 W1_247_0 + 0.5490196078431373 W1_262_0
   + 0.996078431372549 W1_263_0 + 0.996078431372549 W1_264_0
   + 0.0235294117647059 W1_265_0 + 0.5686274509803921 W1_270_0
   + 0.996078431372549 W1_271_0 + 0.996078431372549 W1_272_0
   + 0.5529411764705883 W1_273_0 + 0.6784313725490196 W1_290_0
   + 0.996078431372549 W1_291_0 + 0.996078431372549 W1_292_0
   + 0.0235294117647059 W1_293_0 + 0.0156862745098039 W1_297_0
   + 0.6274509803921569 W1_298_0 + 0.996078431372549 W1_299_0
   + 0.9411764705882353 W1_300_0 + 0.1137254901960784 W1_301_0
   + 0.0156862745098039 W1_317_0 + 0.6941176470588235 W1_318_0
   + 0.996078431372549 W1_319_0 + 0.996078431372549 W1_320_0
   + 0.0235294117647059 W1_321_0 + 0.1098039215686274 W1_325_0
   + 0.996078431372549 W1_326_0 + 0.996078431372549 W1_327_0
   + 0.592156862745098 W1_328_0 + 0.1294117647058824 W1_331_0
   + 0.5490196078431373 W1_332_0 + 0.2196078431372549 W1_345_0
   + 0.996078431372549 W1_346_0 + 0.996078431372549 W1_347_0
   + 0.7333333333333333 W1_348_0 + 0.0117647058823529 W1_349_0
   + 0.392156862745098 W1_353_0 + 0.996078431372549 W1_354_0
   + 0.996078431372549 W1_355_0 + 0.3137254901960784 W1_356_0
   + 0.1294117647058824 W1_358_0 + 0.8549019607843137 W1_359_0
   + 0.9176470588235294 W1_360_0 + 0.1333333333333333 W1_372_0
   + 0.8509803921568627 W1_373_0 + 0.996078431372549 W1_374_0
   + 0.9725490196078431 W1_375_0 + 0.2745098039215687 W1_376_0
   + 0.6509803921568628 W1_381_0 + 0.996078431372549 W1_382_0
   + 0.996078431372549 W1_383_0 + 0.9764705882352941 W1_384_0
   + 0.9764705882352941 W1_385_0 + 0.9803921568627451 W1_386_0
   + 0.996078431372549 W1_387_0 + 0.6784313725490196 W1_388_0
   + 0.1372549019607843 W1_399_0 + 0.5450980392156862 W1_400_0
   + 0.996078431372549 W1_401_0 + 0.996078431372549 W1_402_0
   + 0.9647058823529412 W1_403_0 + 0.1725490196078431 W1_404_0
   + 0.3490196078431372 W1_405_0 + 0.3568627450980392 W1_406_0
   + 0.3568627450980392 W1_407_0 + 0.7490196078431373 W1_408_0
   + 0.9607843137254902 W1_409_0 + 0.996078431372549 W1_410_0
   + 0.996078431372549 W1_411_0 + 0.996078431372549 W1_412_0
   + 0.996078431372549 W1_413_0 + 0.996078431372549 W1_414_0
   + 0.6588235294117647 W1_415_0 + 0.0392156862745098 W1_416_0
   + 0.8196078431372549 W1_427_0 + 0.996078431372549 W1_428_0
   + 0.996078431372549 W1_429_0 + 0.996078431372549 W1_430_0
   + 0.996078431372549 W1_431_0 + 0.9019607843137255 W1_432_0
   + 0.9921568627450981 W1_433_0 + 0.996078431372549 W1_434_0
   + 0.996078431372549 W1_435_0 + 0.996078431372549 W1_436_0
   + 0.996078431372549 W1_437_0 + 0.996078431372549 W1_438_0
   + 0.996078431372549 W1_439_0 + 0.7411764705882353 W1_440_0
   + 0.5490196078431373 W1_441_0 + 0.1882352941176471 W1_442_0
   + 0.0549019607843137 W1_443_0 + 0.8196078431372549 W1_455_0
   + 0.996078431372549 W1_456_0 + 0.996078431372549 W1_457_0
   + 0.996078431372549 W1_458_0 + 0.996078431372549 W1_459_0
   + 0.996078431372549 W1_460_0 + 0.996078431372549 W1_461_0
   + 0.996078431372549 W1_462_0 + 0.8431372549019608 W1_463_0
   + 0.9490196078431372 W1_464_0 + 0.996078431372549 W1_465_0
   + 0.9764705882352941 W1_466_0 + 0.2666666666666667 W1_467_0
   + 0.0156862745098039 W1_468_0 + 0.1333333333333333 W1_483_0
   + 0.5098039215686274 W1_484_0 + 0.8901960784313725 W1_485_0
   + 0.8901960784313725 W1_486_0 + 0.8588235294117647 W1_487_0
   + 0.3490196078431372 W1_488_0 + 0.3490196078431372 W1_489_0
   + 0.3490196078431372 W1_490_0 + 0.2431372549019608 W1_491_0
   + 0.9058823529411765 W1_492_0 + W1_493_0 + 0.615686274509804 W1_494_0
   + 0.2901960784313726 W1_519_0 + 0.996078431372549 W1_520_0
   + 0.996078431372549 W1_521_0 + 0.4313725490196079 W1_522_0
   + 0.8117647058823529 W1_547_0 + 0.996078431372549 W1_548_0
   + 0.9450980392156862 W1_549_0 + 0.2196078431372549 W1_550_0
   + 0.5568627450980392 W1_574_0 + 0.9882352941176471 W1_575_0
   + 0.996078431372549 W1_576_0 + 0.6666666666666666 W1_577_0
   + 0.1450980392156863 W1_601_0 + 0.9294117647058824 W1_602_0
   + 0.996078431372549 W1_603_0 + 0.8313725490196079 W1_604_0
   + 0.0470588235294118 W1_605_0 + 0.4352941176470588 W1_629_0
   + 0.996078431372549 W1_630_0 + 0.996078431372549 W1_631_0
   + 0.807843137254902 W1_632_0 + 0.4352941176470588 W1_657_0
   + 0.996078431372549 W1_658_0 + 0.996078431372549 W1_659_0
   + 0.807843137254902 W1_660_0 + 0.4352941176470588 W1_685_0
   + 0.996078431372549 W1_686_0 + 0.996078431372549 W1_687_0
   + 0.4705882352941176 W1_688_0 + 0.4352941176470588 W1_713_0
   + 0.996078431372549 W1_714_0 + 0.8509803921568627 W1_715_0
   + 0.1254901960784314 W1_716_0 - 20 sign_inner_1_0 >= -19.999
 sign_0_pkj_neg_1_0: W1_0_0 + 0.3176470588235294 W1_178_0
   + 0.7843137254901961 W1_179_0 + 0.7215686274509804 W1_180_0
   + 0.2627450980392157 W1_181_0 + 0.4431372549019608 W1_188_0
   + 0.9333333333333333 W1_189_0 + 0.8705882352941177 W1_190_0
   + 0.1372549019607843 W1_191_0 + 0.6784313725490196 W1_206_0
   + 0.996078431372549 W1_207_0 + 0.996078431372549 W1_208_0
   + 0.5647058823529412 W1_209_0 + 0.0117647058823529 W1_214_0
   + 0.6431372549019608 W1_215_0 + 0.996078431372549 W1_216_0
   + 0.996078431372549 W1_217_0 + 0.996078431372549 W1_218_0
   + 0.2941176470588235 W1_219_0 + 0.2235294117647059 W1_234_0
   + 0.996078431372549 W1_235_0 + 0.996078431372549 W1_236_0
   + 0.403921568627451 W1_237_0 + 0.1921568627450981 W1_242_0
   + 0.996078431372549 W1_243_0 + 0.996078431372549 W1_244_0
   + 0.7215686274509804 W1_245_0 + 0.1607843137254902 W1_246_0
   + 0.0470588235294118 W1_247_0 + 0.5490196078431373 W1_262_0
   + 0.996078431372549 W1_263_0 + 0.996078431372549 W1_264_0
   + 0.0235294117647059 W1_265_0 + 0.5686274509803921 W1_270_0
   + 0.996078431372549 W1_271_0 + 0.996078431372549 W1_272_0
   + 0.5529411764705883 W1_273_0 + 0.6784313725490196 W1_290_0
   + 0.996078431372549 W1_291_0 + 0.996078431372549 W1_292_0
   + 0.0235294117647059 W1_293_0 + 0.0156862745098039 W1_297_0
   + 0.6274509803921569 W1_298_0 + 0.996078431372549 W1_299_0
   + 0.9411764705882353 W1_300_0 + 0.1137254901960784 W1_301_0
   + 0.0156862745098039 W1_317_0 + 0.6941176470588235 W1_318_0
   + 0.996078431372549 W1_319_0 + 0.996078431372549 W1_320_0
   + 0.0235294117647059 W1_321_0 + 0.1098039215686274 W1_325_0
   + 0.996078431372549 W1_326_0 + 0.996078431372549 W1_327_0
   + 0.592156862745098 W1_328_0 + 0.1294117647058824 W1_331_0
   + 0.5490196078431373 W1_332_0 + 0.2196078431372549 W1_345_0
   + 0.996078431372549 W1_346_0 + 0.996078431372549 W1_347_0
   + 0.7333333333333333 W1_348_0 + 0.0117647058823529 W1_349_0
   + 0.392156862745098 W1_353_0 + 0.996078431372549 W1_354_0
   + 0.996078431372549 W1_355_0 + 0.3137254901960784 W1_356_0
   + 0.1294117647058824 W1_358_0 + 0.8549019607843137 W1_359_0
   + 0.9176470588235294 W1_360_0 + 0.1333333333333333 W1_372_0
   + 0.8509803921568627 W1_373_0 + 0.996078431372549 W1_374_0
   + 0.9725490196078431 W1_375_0 + 0.2745098039215687 W1_376_0
   + 0.6509803921568628 W1_381_0 + 0.996078431372549 W1_382_0
   + 0.996078431372549 W1_383_0 + 0.9764705882352941 W1_384_0
   + 0.9764705882352941 W1_385_0 + 0.9803921568627451 W1_386_0
   + 0.996078431372549 W1_387_0 + 0.6784313725490196 W1_388_0
   + 0.1372549019607843 W1_399_0 + 0.5450980392156862 W1_400_0
   + 0.996078431372549 W1_401_0 + 0.996078431372549 W1_402_0
   + 0.9647058823529412 W1_403_0 + 0.1725490196078431 W1_404_0
   + 0.3490196078431372 W1_405_0 + 0.3568627450980392 W1_406_0
   + 0.3568627450980392 W1_407_0 + 0.7490196078431373 W1_408_0
   + 0.9607843137254902 W1_409_0 + 0.996078431372549 W1_410_0
   + 0.996078431372549 W1_411_0 + 0.996078431372549 W1_412_0
   + 0.996078431372549 W1_413_0 + 0.996078431372549 W1_414_0
   + 0.6588235294117647 W1_415_0 + 0.0392156862745098 W1_416_0
   + 0.8196078431372549 W1_427_0 + 0.996078431372549 W1_428_0
   + 0.996078431372549 W1_429_0 + 0.996078431372549 W1_430_0
   + 0.996078431372549 W1_431_0 + 0.9019607843137255 W1_432_0
   + 0.9921568627450981 W1_433_0 + 0.996078431372549 W1_434_0
   + 0.996078431372549 W1_435_0 + 0.996078431372549 W1_436_0
   + 0.996078431372549 W1_437_0 + 0.996078431372549 W1_438_0
   + 0.996078431372549 W1_439_0 + 0.7411764705882353 W1_440_0
   + 0.5490196078431373 W1_441_0 + 0.1882352941176471 W1_442_0
   + 0.0549019607843137 W1_443_0 + 0.8196078431372549 W1_455_0
   + 0.996078431372549 W1_456_0 + 0.996078431372549 W1_457_0
   + 0.996078431372549 W1_458_0 + 0.996078431372549 W1_459_0
   + 0.996078431372549 W1_460_0 + 0.996078431372549 W1_461_0
   + 0.996078431372549 W1_462_0 + 0.8431372549019608 W1_463_0
   + 0.9490196078431372 W1_464_0 + 0.996078431372549 W1_465_0
   + 0.9764705882352941 W1_466_0 + 0.2666666666666667 W1_467_0
   + 0.0156862745098039 W1_468_0 + 0.1333333333333333 W1_483_0
   + 0.5098039215686274 W1_484_0 + 0.8901960784313725 W1_485_0
   + 0.8901960784313725 W1_486_0 + 0.8588235294117647 W1_487_0
   + 0.3490196078431372 W1_488_0 + 0.3490196078431372 W1_489_0
   + 0.3490196078431372 W1_490_0 + 0.2431372549019608 W1_491_0
   + 0.9058823529411765 W1_492_0 + W1_493_0 + 0.615686274509804 W1_494_0
   + 0.2901960784313726 W1_519_0 + 0.996078431372549 W1_520_0
   + 0.996078431372549 W1_521_0 + 0.4313725490196079 W1_522_0
   + 0.8117647058823529 W1_547_0 + 0.996078431372549 W1_548_0
   + 0.9450980392156862 W1_549_0 + 0.2196078431372549 W1_550_0
   + 0.5568627450980392 W1_574_0 + 0.9882352941176471 W1_575_0
   + 0.996078431372549 W1_576_0 + 0.6666666666666666 W1_577_0
   + 0.1450980392156863 W1_601_0 + 0.9294117647058824 W1_602_0
   + 0.996078431372549 W1_603_0 + 0.8313725490196079 W1_604_0
   + 0.0470588235294118 W1_605_0 + 0.4352941176470588 W1_629_0
   + 0.996078431372549 W1_630_0 + 0.996078431372549 W1_631_0
   + 0.807843137254902 W1_632_0 + 0.4352941176470588 W1_657_0
   + 0.996078431372549 W1_658_0 + 0.996078431372549 W1_659_0
   + 0.807843137254902 W1_660_0 + 0.4352941176470588 W1_685_0
   + 0.996078431372549 W1_686_0 + 0.996078431372549 W1_687_0
   + 0.4705882352941176 W1_688_0 + 0.4352941176470588 W1_713_0
   + 0.996078431372549 W1_714_0 + 0.8509803921568627 W1_715_0
   + 0.1254901960784314 W1_716_0 - 20 sign_inner_1_0 <= 0
 sign_1_pkj_pos_1_1: W1_0_1 + 0.3176470588235294 W1_178_1
   + 0.7843137254901961 W1_179_1 + 0.7215686274509804 W1_180_1
   + 0.2627450980392157 W1_181_1 + 0.4431372549019608 W1_188_1
   + 0.9333333333333333 W1_189_1 + 0.8705882352941177 W1_190_1
   + 0.1372549019607843 W1_191_1 + 0.6784313725490196 W1_206_1
   + 0.996078431372549 W1_207_1 + 0.996078431372549 W1_208_1
   + 0.5647058823529412 W1_209_1 + 0.0117647058823529 W1_214_1
   + 0.6431372549019608 W1_215_1 + 0.996078431372549 W1_216_1
   + 0.996078431372549 W1_217_1 + 0.996078431372549 W1_218_1
   + 0.2941176470588235 W1_219_1 + 0.2235294117647059 W1_234_1
   + 0.996078431372549 W1_235_1 + 0.996078431372549 W1_236_1
   + 0.403921568627451 W1_237_1 + 0.1921568627450981 W1_242_1
   + 0.996078431372549 W1_243_1 + 0.996078431372549 W1_244_1
   + 0.7215686274509804 W1_245_1 + 0.1607843137254902 W1_246_1
   + 0.0470588235294118 W1_247_1 + 0.5490196078431373 W1_262_1
   + 0.996078431372549 W1_263_1 + 0.996078431372549 W1_264_1
   + 0.0235294117647059 W1_265_1 + 0.5686274509803921 W1_270_1
   + 0.996078431372549 W1_271_1 + 0.996078431372549 W1_272_1
   + 0.5529411764705883 W1_273_1 + 0.6784313725490196 W1_290_1
   + 0.996078431372549 W1_291_1 + 0.996078431372549 W1_292_1
   + 0.0235294117647059 W1_293_1 + 0.0156862745098039 W1_297_1
   + 0.6274509803921569 W1_298_1 + 0.996078431372549 W1_299_1
   + 0.9411764705882353 W1_300_1 + 0.1137254901960784 W1_301_1
   + 0.0156862745098039 W1_317_1 + 0.6941176470588235 W1_318_1
   + 0.996078431372549 W1_319_1 + 0.996078431372549 W1_320_1
   + 0.0235294117647059 W1_321_1 + 0.1098039215686274 W1_325_1
   + 0.996078431372549 W1_326_1 + 0.996078431372549 W1_327_1
   + 0.592156862745098 W1_328_1 + 0.1294117647058824 W1_331_1
   + 0.5490196078431373 W1_332_1 + 0.2196078431372549 W1_345_1
   + 0.996078431372549 W1_346_1 + 0.996078431372549 W1_347_1
   + 0.7333333333333333 W1_348_1 + 0.0117647058823529 W1_349_1
   + 0.392156862745098 W1_353_1 + 0.996078431372549 W1_354_1
   + 0.996078431372549 W1_355_1 + 0.3137254901960784 W1_356_1
   + 0.1294117647058824 W1_358_1 + 0.8549019607843137 W1_359_1
   + 0.9176470588235294 W1_360_1 + 0.1333333333333333 W1_372_1
   + 0.8509803921568627 W1_373_1 + 0.996078431372549 W1_374_1
   + 0.9725490196078431 W1_375_1 + 0.2745098039215687 W1_376_1
   + 0.6509803921568628 W1_381_1 + 0.996078431372549 W1_382_1
   + 0.996078431372549 W1_383_1 + 0.9764705882352941 W1_384_1
   + 0.9764705882352941 W1_385_1 + 0.9803921568627451 W1_386_1
   + 0.996078431372549 W1_387_1 + 0.6784313725490196 W1_388_1
   + 0.1372549019607843 W1_399_1 + 0.5450980392156862 W1_400_1
   + 0.996078431372549 W1_401_1 + 0.996078431372549 W1_402_1
   + 0.9647058823529412 W1_403_1 + 0.1725490196078431 W1_404_1
   + 0.3490196078431372 W1_405_1 + 0.3568627450980392 W1_406_1
   + 0.3568627450980392 W1_407_1 + 0.7490196078431373 W1_408_1
   + 0.9607843137254902 W1_409_1 + 0.996078431372549 W1_410_1
   + 0.996078431372549 W1_411_1 + 0.996078431372549 W1_412_1
   + 0.996078431372549 W1_413_1 + 0.996078431372549 W1_414_1
   + 0.6588235294117647 W1_415_1 + 0.0392156862745098 W1_416_1
   + 0.8196078431372549 W1_427_1 + 0.996078431372549 W1_428_1
   + 0.996078431372549 W1_429_1 + 0.996078431372549 W1_430_1
   + 0.996078431372549 W1_431_1 + 0.9019607843137255 W1_432_1
   + 0.9921568627450981 W1_433_1 + 0.996078431372549 W1_434_1
   + 0.996078431372549 W1_435_1 + 0.996078431372549 W1_436_1
   + 0.996078431372549 W1_437_1 + 0.996078431372549 W1_438_1
   + 0.996078431372549 W1_439_1 + 0.7411764705882353 W1_440_1
   + 0.5490196078431373 W1_441_1 + 0.1882352941176471 W1_442_1
   + 0.0549019607843137 W1_443_1 + 0.8196078431372549 W1_455_1
   + 0.996078431372549 W1_456_1 + 0.996078431372549 W1_457_1
   + 0.996078431372549 W1_458_1 + 0.996078431372549 W1_459_1
   + 0.996078431372549 W1_460_1 + 0.996078431372549 W1_461_1
   + 0.996078431372549 W1_462_1 + 0.8431372549019608 W1_463_1
   + 0.9490196078431372 W1_464_1 + 0.996078431372549 W1_465_1
   + 0.9764705882352941 W1_466_1 + 0.2666666666666667 W1_467_1
   + 0.0156862745098039 W1_468_1 + 0.1333333333333333 W1_483_1
   + 0.5098039215686274 W1_484_1 + 0.8901960784313725 W1_485_1
   + 0.8901960784313725 W1_486_1 + 0.8588235294117647 W1_487_1
   + 0.3490196078431372 W1_488_1 + 0.3490196078431372 W1_489_1
   + 0.3490196078431372 W1_490_1 + 0.2431372549019608 W1_491_1
   + 0.9058823529411765 W1_492_1 + W1_493_1 + 0.615686274509804 W1_494_1
   + 0.2901960784313726 W1_519_1 + 0.996078431372549 W1_520_1
   + 0.996078431372549 W1_521_1 + 0.4313725490196079 W1_522_1
   + 0.8117647058823529 W1_547_1 + 0.996078431372549 W1_548_1
   + 0.9450980392156862 W1_549_1 + 0.2196078431372549 W1_550_1
   + 0.5568627450980392 W1_574_1 + 0.9882352941176471 W1_575_1
   + 0.996078431372549 W1_576_1 + 0.6666666666666666 W1_577_1
   + 0.1450980392156863 W1_601_1 + 0.9294117647058824 W1_602_1
   + 0.996078431372549 W1_603_1 + 0.8313725490196079 W1_604_1
   + 0.0470588235294118 W1_605_1 + 0.4352941176470588 W1_629_1
   + 0.996078431372549 W1_630_1 + 0.996078431372549 W1_631_1
   + 0.807843137254902 W1_632_1 + 0.4352941176470588 W1_657_1
   + 0.996078431372549 W1_658_1 + 0.996078431372549 W1_659_1
   + 0.807843137254902 W1_660_1 + 0.4352941176470588 W1_685_1
   + 0.996078431372549 W1_686_1 + 0.996078431372549 W1_687_1
   + 0.4705882352941176 W1_688_1 + 0.4352941176470588 W1_713_1
   + 0.996078431372549 W1_714_1 + 0.8509803921568627 W1_715_1
   + 0.1254901960784314 W1_716_1 - 20 sign_inner_1_1 >= -19.999
 sign_0_pkj_neg_1_1: W1_0_1 + 0.3176470588235294 W1_178_1
   + 0.7843137254901961 W1_179_1 + 0.7215686274509804 W1_180_1
   + 0.2627450980392157 W1_181_1 + 0.4431372549019608 W1_188_1
   + 0.9333333333333333 W1_189_1 + 0.8705882352941177 W1_190_1
   + 0.1372549019607843 W1_191_1 + 0.6784313725490196 W1_206_1
   + 0.996078431372549 W1_207_1 + 0.996078431372549 W1_208_1
   + 0.5647058823529412 W1_209_1 + 0.0117647058823529 W1_214_1
   + 0.6431372549019608 W1_215_1 + 0.996078431372549 W1_216_1
   + 0.996078431372549 W1_217_1 + 0.996078431372549 W1_218_1
   + 0.2941176470588235 W1_219_1 + 0.2235294117647059 W1_234_1
   + 0.996078431372549 W1_235_1 + 0.996078431372549 W1_236_1
   + 0.403921568627451 W1_237_1 + 0.1921568627450981 W1_242_1
   + 0.996078431372549 W1_243_1 + 0.996078431372549 W1_244_1
   + 0.7215686274509804 W1_245_1 + 0.1607843137254902 W1_246_1
   + 0.0470588235294118 W1_247_1 + 0.5490196078431373 W1_262_1
   + 0.996078431372549 W1_263_1 + 0.996078431372549 W1_264_1
   + 0.0235294117647059 W1_265_1 + 0.5686274509803921 W1_270_1
   + 0.996078431372549 W1_271_1 + 0.996078431372549 W1_272_1
   + 0.5529411764705883 W1_273_1 + 0.6784313725490196 W1_290_1
   + 0.996078431372549 W1_291_1 + 0.996078431372549 W1_292_1
   + 0.0235294117647059 W1_293_1 + 0.0156862745098039 W1_297_1
   + 0.6274509803921569 W1_298_1 + 0.996078431372549 W1_299_1
   + 0.9411764705882353 W1_300_1 + 0.1137254901960784 W1_301_1
   + 0.0156862745098039 W1_317_1 + 0.6941176470588235 W1_318_1
   + 0.996078431372549 W1_319_1 + 0.996078431372549 W1_320_1
   + 0.0235294117647059 W1_321_1 + 0.1098039215686274 W1_325_1
   + 0.996078431372549 W1_326_1 + 0.996078431372549 W1_327_1
   + 0.592156862745098 W1_328_1 + 0.1294117647058824 W1_331_1
   + 0.5490196078431373 W1_332_1 + 0.2196078431372549 W1_345_1
   + 0.996078431372549 W1_346_1 + 0.996078431372549 W1_347_1
   + 0.7333333333333333 W1_348_1 + 0.0117647058823529 W1_349_1
   + 0.392156862745098 W1_353_1 + 0.996078431372549 W1_354_1
   + 0.996078431372549 W1_355_1 + 0.3137254901960784 W1_356_1
   + 0.1294117647058824 W1_358_1 + 0.8549019607843137 W1_359_1
   + 0.9176470588235294 W1_360_1 + 0.1333333333333333 W1_372_1
   + 0.8509803921568627 W1_373_1 + 0.996078431372549 W1_374_1
   + 0.9725490196078431 W1_375_1 + 0.2745098039215687 W1_376_1
   + 0.6509803921568628 W1_381_1 + 0.996078431372549 W1_382_1
   + 0.996078431372549 W1_383_1 + 0.9764705882352941 W1_384_1
   + 0.9764705882352941 W1_385_1 + 0.9803921568627451 W1_386_1
   + 0.996078431372549 W1_387_1 + 0.6784313725490196 W1_388_1
   + 0.1372549019607843 W1_399_1 + 0.5450980392156862 W1_400_1
   + 0.996078431372549 W1_401_1 + 0.996078431372549 W1_402_1
   + 0.9647058823529412 W1_403_1 + 0.1725490196078431 W1_404_1
   + 0.3490196078431372 W1_405_1 + 0.3568627450980392 W1_406_1
   + 0.3568627450980392 W1_407_1 + 0.7490196078431373 W1_408_1
   + 0.9607843137254902 W1_409_1 + 0.996078431372549 W1_410_1
   + 0.996078431372549 W1_411_1 + 0.996078431372549 W1_412_1
   + 0.996078431372549 W1_413_1 + 0.996078431372549 W1_414_1
   + 0.6588235294117647 W1_415_1 + 0.0392156862745098 W1_416_1
   + 0.8196078431372549 W1_427_1 + 0.996078431372549 W1_428_1
   + 0.996078431372549 W1_429_1 + 0.996078431372549 W1_430_1
   + 0.996078431372549 W1_431_1 + 0.9019607843137255 W1_432_1
   + 0.9921568627450981 W1_433_1 + 0.996078431372549 W1_434_1
   + 0.996078431372549 W1_435_1 + 0.996078431372549 W1_436_1
   + 0.996078431372549 W1_437_1 + 0.996078431372549 W1_438_1
   + 0.996078431372549 W1_439_1 + 0.7411764705882353 W1_440_1
   + 0.5490196078431373 W1_441_1 + 0.1882352941176471 W1_442_1
   + 0.0549019607843137 W1_443_1 + 0.8196078431372549 W1_455_1
   + 0.996078431372549 W1_456_1 + 0.996078431372549 W1_457_1
   + 0.996078431372549 W1_458_1 + 0.996078431372549 W1_459_1
   + 0.996078431372549 W1_460_1 + 0.996078431372549 W1_461_1
   + 0.996078431372549 W1_462_1 + 0.8431372549019608 W1_463_1
   + 0.9490196078431372 W1_464_1 + 0.996078431372549 W1_465_1
   + 0.9764705882352941 W1_466_1 + 0.2666666666666667 W1_467_1
   + 0.0156862745098039 W1_468_1 + 0.1333333333333333 W1_483_1
   + 0.5098039215686274 W1_484_1 + 0.8901960784313725 W1_485_1
   + 0.8901960784313725 W1_486_1 + 0.8588235294117647 W1_487_1
   + 0.3490196078431372 W1_488_1 + 0.3490196078431372 W1_489_1
   + 0.3490196078431372 W1_490_1 + 0.2431372549019608 W1_491_1
   + 0.9058823529411765 W1_492_1 + W1_493_1 + 0.615686274509804 W1_494_1
   + 0.2901960784313726 W1_519_1 + 0.996078431372549 W1_520_1
   + 0.996078431372549 W1_521_1 + 0.4313725490196079 W1_522_1
   + 0.8117647058823529 W1_547_1 + 0.996078431372549 W1_548_1
   + 0.9450980392156862 W1_549_1 + 0.2196078431372549 W1_550_1
   + 0.5568627450980392 W1_574_1 + 0.9882352941176471 W1_575_1
   + 0.996078431372549 W1_576_1 + 0.6666666666666666 W1_577_1
   + 0.1450980392156863 W1_601_1 + 0.9294117647058824 W1_602_1
   + 0.996078431372549 W1_603_1 + 0.8313725490196079 W1_604_1
   + 0.0470588235294118 W1_605_1 + 0.4352941176470588 W1_629_1
   + 0.996078431372549 W1_630_1 + 0.996078431372549 W1_631_1
   + 0.807843137254902 W1_632_1 + 0.4352941176470588 W1_657_1
   + 0.996078431372549 W1_658_1 + 0.996078431372549 W1_659_1
   + 0.807843137254902 W1_660_1 + 0.4352941176470588 W1_685_1
   + 0.996078431372549 W1_686_1 + 0.996078431372549 W1_687_1
   + 0.4705882352941176 W1_688_1 + 0.4352941176470588 W1_713_1
   + 0.996078431372549 W1_714_1 + 0.8509803921568627 W1_715_1
   + 0.1254901960784314 W1_716_1 - 20 sign_inner_1_1 <= 0
 sign_1_pkj_pos_2_0: W1_0_0 + 0.3254901960784314 W1_132_0
   + 0.996078431372549 W1_133_0 + 0.2352941176470588 W1_134_0
   + 0.0352941176470588 W1_159_0 + 0.8156862745098039 W1_160_0
   + 0.9921568627450981 W1_161_0 + 0.6235294117647059 W1_162_0
   + 0.3490196078431372 W1_187_0 + 0.9921568627450981 W1_188_0
   + 0.9921568627450981 W1_189_0 + 0.4980392156862745 W1_190_0
   + 0.5411764705882353 W1_215_0 + 0.9921568627450981 W1_216_0
   + 0.8588235294117647 W1_217_0 + 0.0980392156862745 W1_218_0
   + 0.5176470588235295 W1_236_0 + 0.2705882352941176 W1_237_0
   + 0.7764705882352941 W1_243_0 + 0.996078431372549 W1_244_0
   + 0.6313725490196078 W1_245_0 + 0.1019607843137255 W1_263_0
   + 0.9098039215686274 W1_264_0 + 0.9607843137254902 W1_265_0
   + 0.0666666666666667 W1_266_0 + 0.2156862745098039 W1_270_0
   + 0.9529411764705882 W1_271_0 + 0.9921568627450981 W1_272_0
   + 0.3019607843137255 W1_273_0 + 0.3803921568627451 W1_291_0
   + 0.9921568627450981 W1_292_0 + 0.9921568627450981 W1_293_0
   + 0.2 W1_294_0 + 0.6666666666666666 W1_298_0
   + 0.9921568627450981 W1_299_0 + 0.9490196078431372 W1_300_0
   + 0.1490196078431373 W1_301_0 + 0.3333333333333333 W1_318_0
   + 0.9686274509803922 W1_319_0 + 0.9921568627450981 W1_320_0
   + 0.8588235294117647 W1_321_0 + 0.1333333333333333 W1_325_0
   + 0.996078431372549 W1_326_0 + 0.9921568627450981 W1_327_0
   + 0.6352941176470588 W1_328_0 + 0.1019607843137255 W1_345_0
   + 0.8666666666666667 W1_346_0 + 0.996078431372549 W1_347_0
   + 0.996078431372549 W1_348_0 + 0.8941176470588236 W1_349_0
   + 0.592156862745098 W1_353_0 + 0.996078431372549 W1_354_0
   + 0.996078431372549 W1_355_0 + 0.5411764705882353 W1_356_0
   + 0.3176470588235294 W1_372_0 + 0.8392156862745098 W1_373_0
   + 0.996078431372549 W1_374_0 + 0.9921568627450981 W1_375_0
   + 0.9568627450980393 W1_376_0 + 0.3372549019607843 W1_377_0
   + 0.1843137254901961 W1_378_0 + 0.1843137254901961 W1_379_0
   + 0.2156862745098039 W1_380_0 + 0.8705882352941177 W1_381_0
   + 0.996078431372549 W1_382_0 + 0.9921568627450981 W1_383_0
   + 0.2117647058823529 W1_384_0 + 0.0196078431372549 W1_388_0
   + 0.0509803921568627 W1_389_0 + 0.1254901960784314 W1_398_0
   + 0.6509803921568628 W1_399_0 + 0.9607843137254902 W1_400_0
   + 0.9921568627450981 W1_401_0 + 0.996078431372549 W1_402_0
   + 0.9921568627450981 W1_403_0 + 0.9921568627450981 W1_404_0
   + 0.9921568627450981 W1_405_0 + 0.996078431372549 W1_406_0
   + 0.9921568627450981 W1_407_0 + 0.9921568627450981 W1_408_0
   + 0.9921568627450981 W1_409_0 + 0.996078431372549 W1_410_0
   + 0.9921568627450981 W1_411_0 + 0.6784313725490196 W1_412_0
   + 0.5843137254901961 W1_413_0 + 0.8156862745098039 W1_414_0
   + 0.8117647058823529 W1_415_0 + 0.8313725490196079 W1_416_0
   + 0.3019607843137255 W1_417_0 + 0.5333333333333333 W1_426_0
   + 0.9921568627450981 W1_427_0 + 0.9921568627450981 W1_428_0
   + 0.9921568627450981 W1_429_0 + 0.996078431372549 W1_430_0
   + 0.9921568627450981 W1_431_0 + 0.9921568627450981 W1_432_0
   + 0.9921568627450981 W1_433_0 + 0.996078431372549 W1_434_0
   + 0.9921568627450981 W1_435_0 + 0.9921568627450981 W1_436_0
   + 0.9921568627450981 W1_437_0 + 0.996078431372549 W1_438_0
   + 0.9921568627450981 W1_439_0 + 0.9921568627450981 W1_440_0
   + 0.9921568627450981 W1_441_0 + 0.996078431372549 W1_442_0
   + 0.9921568627450981 W1_443_0 + 0.9921568627450981 W1_444_0
   + 0.5019607843137255 W1_445_0 + 0.407843137254902 W1_454_0
   + 0.996078431372549 W1_455_0 + 0.996078431372549 W1_456_0
   + 0.996078431372549 W1_457_0 + 0.7254901960784313 W1_458_0
   + 0.7215686274509804 W1_459_0 + 0.7215686274509804 W1_460_0
   + 0.7215686274509804 W1_461_0 + 0.7254901960784313 W1_462_0
   + 0.9725490196078431 W1_463_0 + 0.996078431372549 W1_464_0
   + 0.996078431372549 W1_465_0 + 0.8235294117647058 W1_466_0
   + 0.7215686274509804 W1_467_0 + 0.8235294117647058 W1_468_0
   + 0.7215686274509804 W1_469_0 + 0.7254901960784313 W1_470_0
   + 0.5254901960784314 W1_471_0 + 0.2 W1_472_0
   + 0.0274509803921569 W1_482_0 + 0.5490196078431373 W1_483_0
   + 0.2862745098039216 W1_484_0 + 0.0901960784313725 W1_485_0
   + 0.1490196078431373 W1_490_0 + 0.9529411764705882 W1_491_0
   + 0.9921568627450981 W1_492_0 + 0.9921568627450981 W1_493_0
   + 0.1647058823529412 W1_494_0 + 0.0352941176470588 W1_496_0
   + 0.4705882352941176 W1_518_0 + 0.9921568627450981 W1_519_0
   + 0.9921568627450981 W1_520_0 + 0.6588235294117647 W1_521_0
   + 0.1333333333333333 W1_545_0 + 0.996078431372549 W1_546_0
   + 0.9921568627450981 W1_547_0 + 0.9921568627450981 W1_548_0
   + 0.2705882352941176 W1_549_0 + 0.1921568627450981 W1_572_0
   + 0.996078431372549 W1_573_0 + W1_574_0 + 0.996078431372549 W1_575_0
   + 0.5725490196078431 W1_576_0 + 0.4549019607843137 W1_600_0
   + 0.9921568627450981 W1_601_0 + 0.996078431372549 W1_602_0
   + 0.9568627450980393 W1_603_0 + 0.1490196078431373 W1_604_0
   + 0.2901960784313726 W1_628_0 + 0.9921568627450981 W1_629_0
   + 0.996078431372549 W1_630_0 + 0.611764705882353 W1_631_0
   + 0.2235294117647059 W1_656_0 + 0.9921568627450981 W1_657_0
   + 0.796078431372549 W1_658_0 + 0.0235294117647059 W1_659_0
   - 20 sign_inner_2_0 >= -19.999
 sign_0_pkj_neg_2_0: W1_0_0 + 0.3254901960784314 W1_132_0
   + 0.996078431372549 W1_133_0 + 0.2352941176470588 W1_134_0
   + 0.0352941176470588 W1_159_0 + 0.8156862745098039 W1_160_0
   + 0.9921568627450981 W1_161_0 + 0.6235294117647059 W1_162_0
   + 0.3490196078431372 W1_187_0 + 0.9921568627450981 W1_188_0
   + 0.9921568627450981 W1_189_0 + 0.4980392156862745 W1_190_0
   + 0.5411764705882353 W1_215_0 + 0.9921568627450981 W1_216_0
   + 0.8588235294117647 W1_217_0 + 0.0980392156862745 W1_218_0
   + 0.5176470588235295 W1_236_0 + 0.2705882352941176 W1_237_0
   + 0.7764705882352941 W1_243_0 + 0.996078431372549 W1_244_0
   + 0.6313725490196078 W1_245_0 + 0.1019607843137255 W1_263_0
   + 0.9098039215686274 W1_264_0 + 0.9607843137254902 W1_265_0
   + 0.0666666666666667 W1_266_0 + 0.2156862745098039 W1_270_0
   + 0.9529411764705882 W1_271_0 + 0.9921568627450981 W1_272_0
   + 0.3019607843137255 W1_273_0 + 0.3803921568627451 W1_291_0
   + 0.9921568627450981 W1_292_0 + 0.9921568627450981 W1_293_0
   + 0.2 W1_294_0 + 0.6666666666666666 W1_298_0
   + 0.9921568627450981 W1_299_0 + 0.9490196078431372 W1_300_0
   + 0.1490196078431373 W1_301_0 + 0.3333333333333333 W1_318_0
   + 0.9686274509803922 W1_319_0 + 0.9921568627450981 W1_320_0
   + 0.8588235294117647 W1_321_0 + 0.1333333333333333 W1_325_0
   + 0.996078431372549 W1_326_0 + 0.9921568627450981 W1_327_0
   + 0.6352941176470588 W1_328_0 + 0.1019607843137255 W1_345_0
   + 0.8666666666666667 W1_346_0 + 0.996078431372549 W1_347_0
   + 0.996078431372549 W1_348_0 + 0.8941176470588236 W1_349_0
   + 0.592156862745098 W1_353_0 + 0.996078431372549 W1_354_0
   + 0.996078431372549 W1_355_0 + 0.5411764705882353 W1_356_0
   + 0.3176470588235294 W1_372_0 + 0.8392156862745098 W1_373_0
   + 0.996078431372549 W1_374_0 + 0.9921568627450981 W1_375_0
   + 0.9568627450980393 W1_376_0 + 0.3372549019607843 W1_377_0
   + 0.1843137254901961 W1_378_0 + 0.1843137254901961 W1_379_0
   + 0.2156862745098039 W1_380_0 + 0.8705882352941177 W1_381_0
   + 0.996078431372549 W1_382_0 + 0.9921568627450981 W1_383_0
   + 0.2117647058823529 W1_384_0 + 0.0196078431372549 W1_388_0
   + 0.0509803921568627 W1_389_0 + 0.1254901960784314 W1_398_0
   + 0.6509803921568628 W1_399_0 + 0.9607843137254902 W1_400_0
   + 0.9921568627450981 W1_401_0 + 0.996078431372549 W1_402_0
   + 0.9921568627450981 W1_403_0 + 0.9921568627450981 W1_404_0
   + 0.9921568627450981 W1_405_0 + 0.996078431372549 W1_406_0
   + 0.9921568627450981 W1_407_0 + 0.9921568627450981 W1_408_0
   + 0.9921568627450981 W1_409_0 + 0.996078431372549 W1_410_0
   + 0.9921568627450981 W1_411_0 + 0.6784313725490196 W1_412_0
   + 0.5843137254901961 W1_413_0 + 0.8156862745098039 W1_414_0
   + 0.8117647058823529 W1_415_0 + 0.8313725490196079 W1_416_0
   + 0.3019607843137255 W1_417_0 + 0.5333333333333333 W1_426_0
   + 0.9921568627450981 W1_427_0 + 0.9921568627450981 W1_428_0
   + 0.9921568627450981 W1_429_0 + 0.996078431372549 W1_430_0
   + 0.9921568627450981 W1_431_0 + 0.9921568627450981 W1_432_0
   + 0.9921568627450981 W1_433_0 + 0.996078431372549 W1_434_0
   + 0.9921568627450981 W1_435_0 + 0.9921568627450981 W1_436_0
   + 0.9921568627450981 W1_437_0 + 0.996078431372549 W1_438_0
   + 0.9921568627450981 W1_439_0 + 0.9921568627450981 W1_440_0
   + 0.9921568627450981 W1_441_0 + 0.996078431372549 W1_442_0
   + 0.9921568627450981 W1_443_0 + 0.9921568627450981 W1_444_0
   + 0.5019607843137255 W1_445_0 + 0.407843137254902 W1_454_0
   + 0.996078431372549 W1_455_0 + 0.996078431372549 W1_456_0
   + 0.996078431372549 W1_457_0 + 0.7254901960784313 W1_458_0
   + 0.7215686274509804 W1_459_0 + 0.7215686274509804 W1_460_0
   + 0.7215686274509804 W1_461_0 + 0.7254901960784313 W1_462_0
   + 0.9725490196078431 W1_463_0 + 0.996078431372549 W1_464_0
   + 0.996078431372549 W1_465_0 + 0.8235294117647058 W1_466_0
   + 0.7215686274509804 W1_467_0 + 0.8235294117647058 W1_468_0
   + 0.7215686274509804 W1_469_0 + 0.7254901960784313 W1_470_0
   + 0.5254901960784314 W1_471_0 + 0.2 W1_472_0
   + 0.0274509803921569 W1_482_0 + 0.5490196078431373 W1_483_0
   + 0.2862745098039216 W1_484_0 + 0.0901960784313725 W1_485_0
   + 0.1490196078431373 W1_490_0 + 0.9529411764705882 W1_491_0
   + 0.9921568627450981 W1_492_0 + 0.9921568627450981 W1_493_0
   + 0.1647058823529412 W1_494_0 + 0.0352941176470588 W1_496_0
   + 0.4705882352941176 W1_518_0 + 0.9921568627450981 W1_519_0
   + 0.9921568627450981 W1_520_0 + 0.6588235294117647 W1_521_0
   + 0.1333333333333333 W1_545_0 + 0.996078431372549 W1_546_0
   + 0.9921568627450981 W1_547_0 + 0.9921568627450981 W1_548_0
   + 0.2705882352941176 W1_549_0 + 0.1921568627450981 W1_572_0
   + 0.996078431372549 W1_573_0 + W1_574_0 + 0.996078431372549 W1_575_0
   + 0.5725490196078431 W1_576_0 + 0.4549019607843137 W1_600_0
   + 0.9921568627450981 W1_601_0 + 0.996078431372549 W1_602_0
   + 0.9568627450980393 W1_603_0 + 0.1490196078431373 W1_604_0
   + 0.2901960784313726 W1_628_0 + 0.9921568627450981 W1_629_0
   + 0.996078431372549 W1_630_0 + 0.611764705882353 W1_631_0
   + 0.2235294117647059 W1_656_0 + 0.9921568627450981 W1_657_0
   + 0.796078431372549 W1_658_0 + 0.0235294117647059 W1_659_0
   - 20 sign_inner_2_0 <= 0
 sign_1_pkj_pos_2_1: W1_0_1 + 0.3254901960784314 W1_132_1
   + 0.996078431372549 W1_133_1 + 0.2352941176470588 W1_134_1
   + 0.0352941176470588 W1_159_1 + 0.8156862745098039 W1_160_1
   + 0.9921568627450981 W1_161_1 + 0.6235294117647059 W1_162_1
   + 0.3490196078431372 W1_187_1 + 0.9921568627450981 W1_188_1
   + 0.9921568627450981 W1_189_1 + 0.4980392156862745 W1_190_1
   + 0.5411764705882353 W1_215_1 + 0.9921568627450981 W1_216_1
   + 0.8588235294117647 W1_217_1 + 0.0980392156862745 W1_218_1
   + 0.5176470588235295 W1_236_1 + 0.2705882352941176 W1_237_1
   + 0.7764705882352941 W1_243_1 + 0.996078431372549 W1_244_1
   + 0.6313725490196078 W1_245_1 + 0.1019607843137255 W1_263_1
   + 0.9098039215686274 W1_264_1 + 0.9607843137254902 W1_265_1
   + 0.0666666666666667 W1_266_1 + 0.2156862745098039 W1_270_1
   + 0.9529411764705882 W1_271_1 + 0.9921568627450981 W1_272_1
   + 0.3019607843137255 W1_273_1 + 0.3803921568627451 W1_291_1
   + 0.9921568627450981 W1_292_1 + 0.9921568627450981 W1_293_1
   + 0.2 W1_294_1 + 0.6666666666666666 W1_298_1
   + 0.9921568627450981 W1_299_1 + 0.9490196078431372 W1_300_1
   + 0.1490196078431373 W1_301_1 + 0.3333333333333333 W1_318_1
   + 0.9686274509803922 W1_319_1 + 0.9921568627450981 W1_320_1
   + 0.8588235294117647 W1_321_1 + 0.1333333333333333 W1_325_1
   + 0.996078431372549 W1_326_1 + 0.9921568627450981 W1_327_1
   + 0.6352941176470588 W1_328_1 + 0.1019607843137255 W1_345_1
   + 0.8666666666666667 W1_346_1 + 0.996078431372549 W1_347_1
   + 0.996078431372549 W1_348_1 + 0.8941176470588236 W1_349_1
   + 0.592156862745098 W1_353_1 + 0.996078431372549 W1_354_1
   + 0.996078431372549 W1_355_1 + 0.5411764705882353 W1_356_1
   + 0.3176470588235294 W1_372_1 + 0.8392156862745098 W1_373_1
   + 0.996078431372549 W1_374_1 + 0.9921568627450981 W1_375_1
   + 0.9568627450980393 W1_376_1 + 0.3372549019607843 W1_377_1
   + 0.1843137254901961 W1_378_1 + 0.1843137254901961 W1_379_1
   + 0.2156862745098039 W1_380_1 + 0.8705882352941177 W1_381_1
   + 0.996078431372549 W1_382_1 + 0.9921568627450981 W1_383_1
   + 0.2117647058823529 W1_384_1 + 0.0196078431372549 W1_388_1
   + 0.0509803921568627 W1_389_1 + 0.1254901960784314 W1_398_1
   + 0.6509803921568628 W1_399_1 + 0.9607843137254902 W1_400_1
   + 0.9921568627450981 W1_401_1 + 0.996078431372549 W1_402_1
   + 0.9921568627450981 W1_403_1 + 0.9921568627450981 W1_404_1
   + 0.9921568627450981 W1_405_1 + 0.996078431372549 W1_406_1
   + 0.9921568627450981 W1_407_1 + 0.9921568627450981 W1_408_1
   + 0.9921568627450981 W1_409_1 + 0.996078431372549 W1_410_1
   + 0.9921568627450981 W1_411_1 + 0.6784313725490196 W1_412_1
   + 0.5843137254901961 W1_413_1 + 0.8156862745098039 W1_414_1
   + 0.8117647058823529 W1_415_1 + 0.8313725490196079 W1_416_1
   + 0.3019607843137255 W1_417_1 + 0.5333333333333333 W1_426_1
   + 0.9921568627450981 W1_427_1 + 0.9921568627450981 W1_428_1
   + 0.9921568627450981 W1_429_1 + 0.996078431372549 W1_430_1
   + 0.9921568627450981 W1_431_1 + 0.9921568627450981 W1_432_1
   + 0.9921568627450981 W1_433_1 + 0.996078431372549 W1_434_1
   + 0.9921568627450981 W1_435_1 + 0.9921568627450981 W1_436_1
   + 0.9921568627450981 W1_437_1 + 0.996078431372549 W1_438_1
   + 0.9921568627450981 W1_439_1 + 0.9921568627450981 W1_440_1
   + 0.9921568627450981 W1_441_1 + 0.996078431372549 W1_442_1
   + 0.9921568627450981 W1_443_1 + 0.9921568627450981 W1_444_1
   + 0.5019607843137255 W1_445_1 + 0.407843137254902 W1_454_1
   + 0.996078431372549 W1_455_1 + 0.996078431372549 W1_456_1
   + 0.996078431372549 W1_457_1 + 0.7254901960784313 W1_458_1
   + 0.7215686274509804 W1_459_1 + 0.7215686274509804 W1_460_1
   + 0.7215686274509804 W1_461_1 + 0.7254901960784313 W1_462_1
   + 0.9725490196078431 W1_463_1 + 0.996078431372549 W1_464_1
   + 0.996078431372549 W1_465_1 + 0.8235294117647058 W1_466_1
   + 0.7215686274509804 W1_467_1 + 0.8235294117647058 W1_468_1
   + 0.7215686274509804 W1_469_1 + 0.7254901960784313 W1_470_1
   + 0.5254901960784314 W1_471_1 + 0.2 W1_472_1
   + 0.0274509803921569 W1_482_1 + 0.5490196078431373 W1_483_1
   + 0.2862745098039216 W1_484_1 + 0.0901960784313725 W1_485_1
   + 0.1490196078431373 W1_490_1 + 0.9529411764705882 W1_491_1
   + 0.9921568627450981 W1_492_1 + 0.9921568627450981 W1_493_1
   + 0.1647058823529412 W1_494_1 + 0.0352941176470588 W1_496_1
   + 0.4705882352941176 W1_518_1 + 0.9921568627450981 W1_519_1
   + 0.9921568627450981 W1_520_1 + 0.6588235294117647 W1_521_1
   + 0.1333333333333333 W1_545_1 + 0.996078431372549 W1_546_1
   + 0.9921568627450981 W1_547_1 + 0.9921568627450981 W1_548_1
   + 0.2705882352941176 W1_549_1 + 0.1921568627450981 W1_572_1
   + 0.996078431372549 W1_573_1 + W1_574_1 + 0.996078431372549 W1_575_1
   + 0.5725490196078431 W1_576_1 + 0.4549019607843137 W1_600_1
   + 0.9921568627450981 W1_601_1 + 0.996078431372549 W1_602_1
   + 0.9568627450980393 W1_603_1 + 0.1490196078431373 W1_604_1
   + 0.2901960784313726 W1_628_1 + 0.9921568627450981 W1_629_1
   + 0.996078431372549 W1_630_1 + 0.611764705882353 W1_631_1
   + 0.2235294117647059 W1_656_1 + 0.9921568627450981 W1_657_1
   + 0.796078431372549 W1_658_1 + 0.0235294117647059 W1_659_1
   - 20 sign_inner_2_1 >= -19.999
 sign_0_pkj_neg_2_1: W1_0_1 + 0.3254901960784314 W1_132_1
   + 0.996078431372549 W1_133_1 + 0.2352941176470588 W1_134_1
   + 0.0352941176470588 W1_159_1 + 0.8156862745098039 W1_160_1
   + 0.9921568627450981 W1_161_1 + 0.6235294117647059 W1_162_1
   + 0.3490196078431372 W1_187_1 + 0.9921568627450981 W1_188_1
   + 0.9921568627450981 W1_189_1 + 0.4980392156862745 W1_190_1
   + 0.5411764705882353 W1_215_1 + 0.9921568627450981 W1_216_1
   + 0.8588235294117647 W1_217_1 + 0.0980392156862745 W1_218_1
   + 0.5176470588235295 W1_236_1 + 0.2705882352941176 W1_237_1
   + 0.7764705882352941 W1_243_1 + 0.996078431372549 W1_244_1
   + 0.6313725490196078 W1_245_1 + 0.1019607843137255 W1_263_1
   + 0.9098039215686274 W1_264_1 + 0.9607843137254902 W1_265_1
   + 0.0666666666666667 W1_266_1 + 0.2156862745098039 W1_270_1
   + 0.9529411764705882 W1_271_1 + 0.9921568627450981 W1_272_1
   + 0.3019607843137255 W1_273_1 + 0.3803921568627451 W1_291_1
   + 0.9921568627450981 W1_292_1 + 0.9921568627450981 W1_293_1
   + 0.2 W1_294_1 + 0.6666666666666666 W1_298_1
   + 0.9921568627450981 W1_299_1 + 0.9490196078431372 W1_300_1
   + 0.1490196078431373 W1_301_1 + 0.3333333333333333 W1_318_1
   + 0.9686274509803922 W1_319_1 + 0.9921568627450981 W1_320_1
   + 0.8588235294117647 W1_321_1 + 0.1333333333333333 W1_325_1
   + 0.996078431372549 W1_326_1 + 0.9921568627450981 W1_327_1
   + 0.6352941176470588 W1_328_1 + 0.1019607843137255 W1_345_1
   + 0.8666666666666667 W1_346_1 + 0.996078431372549 W1_347_1
   + 0.996078431372549 W1_348_1 + 0.8941176470588236 W1_349_1
   + 0.592156862745098 W1_353_1 + 0.996078431372549 W1_354_1
   + 0.996078431372549 W1_355_1 + 0.5411764705882353 W1_356_1
   + 0.3176470588235294 W1_372_1 + 0.8392156862745098 W1_373_1
   + 0.996078431372549 W1_374_1 + 0.9921568627450981 W1_375_1
   + 0.9568627450980393 W1_376_1 + 0.3372549019607843 W1_377_1
   + 0.1843137254901961 W1_378_1 + 0.1843137254901961 W1_379_1
   + 0.2156862745098039 W1_380_1 + 0.8705882352941177 W1_381_1
   + 0.996078431372549 W1_382_1 + 0.9921568627450981 W1_383_1
   + 0.2117647058823529 W1_384_1 + 0.0196078431372549 W1_388_1
   + 0.0509803921568627 W1_389_1 + 0.1254901960784314 W1_398_1
   + 0.6509803921568628 W1_399_1 + 0.9607843137254902 W1_400_1
   + 0.9921568627450981 W1_401_1 + 0.996078431372549 W1_402_1
   + 0.9921568627450981 W1_403_1 + 0.9921568627450981 W1_404_1
   + 0.9921568627450981 W1_405_1 + 0.996078431372549 W1_406_1
   + 0.9921568627450981 W1_407_1 + 0.9921568627450981 W1_408_1
   + 0.9921568627450981 W1_409_1 + 0.996078431372549 W1_410_1
   + 0.9921568627450981 W1_411_1 + 0.6784313725490196 W1_412_1
   + 0.5843137254901961 W1_413_1 + 0.8156862745098039 W1_414_1
   + 0.8117647058823529 W1_415_1 + 0.8313725490196079 W1_416_1
   + 0.3019607843137255 W1_417_1 + 0.5333333333333333 W1_426_1
   + 0.9921568627450981 W1_427_1 + 0.9921568627450981 W1_428_1
   + 0.9921568627450981 W1_429_1 + 0.996078431372549 W1_430_1
   + 0.9921568627450981 W1_431_1 + 0.9921568627450981 W1_432_1
   + 0.9921568627450981 W1_433_1 + 0.996078431372549 W1_434_1
   + 0.9921568627450981 W1_435_1 + 0.9921568627450981 W1_436_1
   + 0.9921568627450981 W1_437_1 + 0.996078431372549 W1_438_1
   + 0.9921568627450981 W1_439_1 + 0.9921568627450981 W1_440_1
   + 0.9921568627450981 W1_441_1 + 0.996078431372549 W1_442_1
   + 0.9921568627450981 W1_443_1 + 0.9921568627450981 W1_444_1
   + 0.5019607843137255 W1_445_1 + 0.407843137254902 W1_454_1
   + 0.996078431372549 W1_455_1 + 0.996078431372549 W1_456_1
   + 0.996078431372549 W1_457_1 + 0.7254901960784313 W1_458_1
   + 0.7215686274509804 W1_459_1 + 0.7215686274509804 W1_460_1
   + 0.7215686274509804 W1_461_1 + 0.7254901960784313 W1_462_1
   + 0.9725490196078431 W1_463_1 + 0.996078431372549 W1_464_1
   + 0.996078431372549 W1_465_1 + 0.8235294117647058 W1_466_1
   + 0.7215686274509804 W1_467_1 + 0.8235294117647058 W1_468_1
   + 0.7215686274509804 W1_469_1 + 0.7254901960784313 W1_470_1
   + 0.5254901960784314 W1_471_1 + 0.2 W1_472_1
   + 0.0274509803921569 W1_482_1 + 0.5490196078431373 W1_483_1
   + 0.2862745098039216 W1_484_1 + 0.0901960784313725 W1_485_1
   + 0.1490196078431373 W1_490_1 + 0.9529411764705882 W1_491_1
   + 0.9921568627450981 W1_492_1 + 0.9921568627450981 W1_493_1
   + 0.1647058823529412 W1_494_1 + 0.0352941176470588 W1_496_1
   + 0.4705882352941176 W1_518_1 + 0.9921568627450981 W1_519_1
   + 0.9921568627450981 W1_520_1 + 0.6588235294117647 W1_521_1
   + 0.1333333333333333 W1_545_1 + 0.996078431372549 W1_546_1
   + 0.9921568627450981 W1_547_1 + 0.9921568627450981 W1_548_1
   + 0.2705882352941176 W1_549_1 + 0.1921568627450981 W1_572_1
   + 0.996078431372549 W1_573_1 + W1_574_1 + 0.996078431372549 W1_575_1
   + 0.5725490196078431 W1_576_1 + 0.4549019607843137 W1_600_1
   + 0.9921568627450981 W1_601_1 + 0.996078431372549 W1_602_1
   + 0.9568627450980393 W1_603_1 + 0.1490196078431373 W1_604_1
   + 0.2901960784313726 W1_628_1 + 0.9921568627450981 W1_629_1
   + 0.996078431372549 W1_630_1 + 0.611764705882353 W1_631_1
   + 0.2235294117647059 W1_656_1 + 0.9921568627450981 W1_657_1
   + 0.796078431372549 W1_658_1 + 0.0235294117647059 W1_659_1
   - 20 sign_inner_2_1 <= 0
 sign_1_pkj_pos_3_0: W1_0_0 + 0.1137254901960784 W1_162_0 + W1_163_0
   + W1_164_0 + 0.6666666666666666 W1_190_0 + W1_191_0
   + 0.5529411764705883 W1_192_0 + 0.1137254901960784 W1_217_0 + W1_218_0
   + W1_219_0 + 0.6666666666666666 W1_245_0 + W1_246_0
   + 0.5529411764705883 W1_247_0 + 0.1137254901960784 W1_266_0 + W1_273_0
   + W1_274_0 + 0.7764705882352941 W1_293_0 + W1_294_0
   + 0.5529411764705883 W1_300_0 + W1_301_0 + 0.5529411764705883 W1_302_0
   + 0.6666666666666666 W1_320_0 + W1_321_0 + 0.8862745098039215 W1_322_0
   + 0.8862745098039215 W1_328_0 + W1_329_0 + 0.1137254901960784 W1_330_0
   + 0.7764705882352941 W1_347_0 + W1_348_0 + 0.8862745098039215 W1_349_0
   + 0.1137254901960784 W1_350_0 + 0.3372549019607843 W1_355_0 + W1_356_0
   + 0.6666666666666666 W1_357_0 + 0.8862745098039215 W1_374_0 + W1_375_0
   + W1_376_0 + 0.1137254901960784 W1_377_0 + 0.8862745098039215 W1_383_0
   + W1_384_0 + 0.1137254901960784 W1_385_0 + 0.7764705882352941 W1_401_0
   + W1_402_0 + W1_403_0 + W1_404_0 + 0.7764705882352941 W1_405_0
   + 0.5529411764705883 W1_410_0 + W1_411_0 + 0.5529411764705883 W1_412_0
   + 0.6666666666666666 W1_428_0 + W1_429_0 + W1_430_0 + W1_431_0
   + W1_432_0 + W1_433_0 + 0.8862745098039215 W1_434_0
   + 0.1137254901960784 W1_436_0 + 0.2235294117647059 W1_437_0 + W1_438_0
   + 0.8862745098039215 W1_439_0 + 0.7764705882352941 W1_455_0 + W1_456_0
   + W1_457_0 + 0.6666666666666666 W1_458_0 + 0.2235294117647059 W1_459_0
   + 0.6666666666666666 W1_461_0 + W1_462_0 + W1_463_0 + W1_464_0
   + W1_465_0 + W1_466_0 + 0.3372549019607843 W1_467_0 + W1_483_0
   + W1_484_0 + 0.2235294117647059 W1_485_0 + 0.7764705882352941 W1_492_0
   + W1_493_0 + 0.7764705882352941 W1_494_0 + 0.2235294117647059 W1_511_0
   + 0.1137254901960784 W1_512_0 + 0.1137254901960784 W1_519_0 + W1_520_0
   + W1_521_0 + 0.1137254901960784 W1_546_0 + 0.7764705882352941 W1_547_0
   + W1_548_0 + 0.5529411764705883 W1_549_0 + 0.3372549019607843 W1_574_0
   + W1_575_0 + 0.8862745098039215 W1_576_0 + 0.2235294117647059 W1_577_0
   + 0.6666666666666666 W1_602_0 + W1_603_0 + 0.2235294117647059 W1_604_0
   + 0.3372549019607843 W1_629_0 + W1_630_0 + 0.6666666666666666 W1_631_0
   + 0.1137254901960784 W1_656_0 + W1_657_0 + 0.8862745098039215 W1_658_0
   + 0.8862745098039215 W1_684_0 + 0.8862745098039215 W1_685_0
   - 20 sign_inner_3_0 >= -19.999
 sign_0_pkj_neg_3_0: W1_0_0 + 0.1137254901960784 W1_162_0 + W1_163_0
   + W1_164_0 + 0.6666666666666666 W1_190_0 + W1_191_0
   + 0.5529411764705883 W1_192_0 + 0.1137254901960784 W1_217_0 + W1_218_0
   + W1_219_0 + 0.6666666666666666 W1_245_0 + W1_246_0
   + 0.5529411764705883 W1_247_0 + 0.1137254901960784 W1_266_0 + W1_273_0
   + W1_274_0 + 0.7764705882352941 W1_293_0 + W1_294_0
   + 0.5529411764705883 W1_300_0 + W1_301_0 + 0.5529411764705883 W1_302_0
   + 0.6666666666666666 W1_320_0 + W1_321_0 + 0.8862745098039215 W1_322_0
   + 0.8862745098039215 W1_328_0 + W1_329_0 + 0.1137254901960784 W1_330_0
   + 0.7764705882352941 W1_347_0 + W1_348_0 + 0.8862745098039215 W1_349_0
   + 0.1137254901960784 W1_350_0 + 0.3372549019607843 W1_355_0 + W1_356_0
   + 0.6666666666666666 W1_357_0 + 0.8862745098039215 W1_374_0 + W1_375_0
   + W1_376_0 + 0.1137254901960784 W1_377_0 + 0.8862745098039215 W1_383_0
   + W1_384_0 + 0.1137254901960784 W1_385_0 + 0.7764705882352941 W1_401_0
   + W1_402_0 + W1_403_0 + W1_404_0 + 0.7764705882352941 W1_405_0
   + 0.5529411764705883 W1_410_0 + W1_411_0 + 0.5529411764705883 W1_412_0
   + 0.6666666666666666 W1_428_0 + W1_429_0 + W1_430_0 + W1_431_0
   + W1_432_0 + W1_433_0 + 0.8862745098039215 W1_434_0
   + 0.1137254901960784 W1_436_0 + 0.2235294117647059 W1_437_0 + W1_438_0
   + 0.8862745098039215 W1_439_0 + 0.7764705882352941 W1_455_0 + W1_456_0
   + W1_457_0 + 0.6666666666666666 W1_458_0 + 0.2235294117647059 W1_459_0
   + 0.6666666666666666 W1_461_0 + W1_462_0 + W1_463_0 + W1_464_0
   + W1_465_0 + W1_466_0 + 0.3372549019607843 W1_467_0 + W1_483_0
   + W1_484_0 + 0.2235294117647059 W1_485_0 + 0.7764705882352941 W1_492_0
   + W1_493_0 + 0.7764705882352941 W1_494_0 + 0.2235294117647059 W1_511_0
   + 0.1137254901960784 W1_512_0 + 0.1137254901960784 W1_519_0 + W1_520_0
   + W1_521_0 + 0.1137254901960784 W1_546_0 + 0.7764705882352941 W1_547_0
   + W1_548_0 + 0.5529411764705883 W1_549_0 + 0.3372549019607843 W1_574_0
   + W1_575_0 + 0.8862745098039215 W1_576_0 + 0.2235294117647059 W1_577_0
   + 0.6666666666666666 W1_602_0 + W1_603_0 + 0.2235294117647059 W1_604_0
   + 0.3372549019607843 W1_629_0 + W1_630_0 + 0.6666666666666666 W1_631_0
   + 0.1137254901960784 W1_656_0 + W1_657_0 + 0.8862745098039215 W1_658_0
   + 0.8862745098039215 W1_684_0 + 0.8862745098039215 W1_685_0
   - 20 sign_inner_3_0 <= 0
 sign_1_pkj_pos_3_1: W1_0_1 + 0.1137254901960784 W1_162_1 + W1_163_1
   + W1_164_1 + 0.6666666666666666 W1_190_1 + W1_191_1
   + 0.5529411764705883 W1_192_1 + 0.1137254901960784 W1_217_1 + W1_218_1
   + W1_219_1 + 0.6666666666666666 W1_245_1 + W1_246_1
   + 0.5529411764705883 W1_247_1 + 0.1137254901960784 W1_266_1 + W1_273_1
   + W1_274_1 + 0.7764705882352941 W1_293_1 + W1_294_1
   + 0.5529411764705883 W1_300_1 + W1_301_1 + 0.5529411764705883 W1_302_1
   + 0.6666666666666666 W1_320_1 + W1_321_1 + 0.8862745098039215 W1_322_1
   + 0.8862745098039215 W1_328_1 + W1_329_1 + 0.1137254901960784 W1_330_1
   + 0.7764705882352941 W1_347_1 + W1_348_1 + 0.8862745098039215 W1_349_1
   + 0.1137254901960784 W1_350_1 + 0.3372549019607843 W1_355_1 + W1_356_1
   + 0.6666666666666666 W1_357_1 + 0.8862745098039215 W1_374_1 + W1_375_1
   + W1_376_1 + 0.1137254901960784 W1_377_1 + 0.8862745098039215 W1_383_1
   + W1_384_1 + 0.1137254901960784 W1_385_1 + 0.7764705882352941 W1_401_1
   + W1_402_1 + W1_403_1 + W1_404_1 + 0.7764705882352941 W1_405_1
   + 0.5529411764705883 W1_410_1 + W1_411_1 + 0.5529411764705883 W1_412_1
   + 0.6666666666666666 W1_428_1 + W1_429_1 + W1_430_1 + W1_431_1
   + W1_432_1 + W1_433_1 + 0.8862745098039215 W1_434_1
   + 0.1137254901960784 W1_436_1 + 0.2235294117647059 W1_437_1 + W1_438_1
   + 0.8862745098039215 W1_439_1 + 0.7764705882352941 W1_455_1 + W1_456_1
   + W1_457_1 + 0.6666666666666666 W1_458_1 + 0.2235294117647059 W1_459_1
   + 0.6666666666666666 W1_461_1 + W1_462_1 + W1_463_1 + W1_464_1
   + W1_465_1 + W1_466_1 + 0.3372549019607843 W1_467_1 + W1_483_1
   + W1_484_1 + 0.2235294117647059 W1_485_1 + 0.7764705882352941 W1_492_1
   + W1_493_1 + 0.7764705882352941 W1_494_1 + 0.2235294117647059 W1_511_1
   + 0.1137254901960784 W1_512_1 + 0.1137254901960784 W1_519_1 + W1_520_1
   + W1_521_1 + 0.1137254901960784 W1_546_1 + 0.7764705882352941 W1_547_1
   + W1_548_1 + 0.5529411764705883 W1_549_1 + 0.3372549019607843 W1_574_1
   + W1_575_1 + 0.8862745098039215 W1_576_1 + 0.2235294117647059 W1_577_1
   + 0.6666666666666666 W1_602_1 + W1_603_1 + 0.2235294117647059 W1_604_1
   + 0.3372549019607843 W1_629_1 + W1_630_1 + 0.6666666666666666 W1_631_1
   + 0.1137254901960784 W1_656_1 + W1_657_1 + 0.8862745098039215 W1_658_1
   + 0.8862745098039215 W1_684_1 + 0.8862745098039215 W1_685_1
   - 20 sign_inner_3_1 >= -19.999
 sign_0_pkj_neg_3_1: W1_0_1 + 0.1137254901960784 W1_162_1 + W1_163_1
   + W1_164_1 + 0.6666666666666666 W1_190_1 + W1_191_1
   + 0.5529411764705883 W1_192_1 + 0.1137254901960784 W1_217_1 + W1_218_1
   + W1_219_1 + 0.6666666666666666 W1_245_1 + W1_246_1
   + 0.5529411764705883 W1_247_1 + 0.1137254901960784 W1_266_1 + W1_273_1
   + W1_274_1 + 0.7764705882352941 W1_293_1 + W1_294_1
   + 0.5529411764705883 W1_300_1 + W1_301_1 + 0.5529411764705883 W1_302_1
   + 0.6666666666666666 W1_320_1 + W1_321_1 + 0.8862745098039215 W1_322_1
   + 0.8862745098039215 W1_328_1 + W1_329_1 + 0.1137254901960784 W1_330_1
   + 0.7764705882352941 W1_347_1 + W1_348_1 + 0.8862745098039215 W1_349_1
   + 0.1137254901960784 W1_350_1 + 0.3372549019607843 W1_355_1 + W1_356_1
   + 0.6666666666666666 W1_357_1 + 0.8862745098039215 W1_374_1 + W1_375_1
   + W1_376_1 + 0.1137254901960784 W1_377_1 + 0.8862745098039215 W1_383_1
   + W1_384_1 + 0.1137254901960784 W1_385_1 + 0.7764705882352941 W1_401_1
   + W1_402_1 + W1_403_1 + W1_404_1 + 0.7764705882352941 W1_405_1
   + 0.5529411764705883 W1_410_1 + W1_411_1 + 0.5529411764705883 W1_412_1
   + 0.6666666666666666 W1_428_1 + W1_429_1 + W1_430_1 + W1_431_1
   + W1_432_1 + W1_433_1 + 0.8862745098039215 W1_434_1
   + 0.1137254901960784 W1_436_1 + 0.2235294117647059 W1_437_1 + W1_438_1
   + 0.8862745098039215 W1_439_1 + 0.7764705882352941 W1_455_1 + W1_456_1
   + W1_457_1 + 0.6666666666666666 W1_458_1 + 0.2235294117647059 W1_459_1
   + 0.6666666666666666 W1_461_1 + W1_462_1 + W1_463_1 + W1_464_1
   + W1_465_1 + W1_466_1 + 0.3372549019607843 W1_467_1 + W1_483_1
   + W1_484_1 + 0.2235294117647059 W1_485_1 + 0.7764705882352941 W1_492_1
   + W1_493_1 + 0.7764705882352941 W1_494_1 + 0.2235294117647059 W1_511_1
   + 0.1137254901960784 W1_512_1 + 0.1137254901960784 W1_519_1 + W1_520_1
   + W1_521_1 + 0.1137254901960784 W1_546_1 + 0.7764705882352941 W1_547_1
   + W1_548_1 + 0.5529411764705883 W1_549_1 + 0.3372549019607843 W1_574_1
   + W1_575_1 + 0.8862745098039215 W1_576_1 + 0.2235294117647059 W1_577_1
   + 0.6666666666666666 W1_602_1 + W1_603_1 + 0.2235294117647059 W1_604_1
   + 0.3372549019607843 W1_629_1 + W1_630_1 + 0.6666666666666666 W1_631_1
   + 0.1137254901960784 W1_656_1 + W1_657_1 + 0.8862745098039215 W1_658_1
   + 0.8862745098039215 W1_684_1 + 0.8862745098039215 W1_685_1
   - 20 sign_inner_3_1 <= 0
 sign_1_pkj_pos_4_0: W1_0_0 + 0.1215686274509804 W1_121_0
   + 0.5764705882352941 W1_122_0 + 0.8784313725490196 W1_123_0
   + 0.7176470588235294 W1_124_0 + 0.7490196078431373 W1_125_0
   + 0.7843137254901961 W1_126_0 + 0.6823529411764706 W1_127_0
   + 0.3882352941176471 W1_128_0 + 0.0509803921568627 W1_129_0
   + 0.2313725490196079 W1_148_0 + 0.8666666666666667 W1_149_0
   + 0.9058823529411765 W1_150_0 + 0.6784313725490196 W1_151_0
   + 0.5490196078431373 W1_152_0 + 0.2705882352941176 W1_153_0
   + 0.5333333333333333 W1_154_0 + 0.5843137254901961 W1_155_0
   + 0.9137254901960784 W1_156_0 + 0.9882352941176471 W1_157_0
   + 0.4823529411764706 W1_158_0 + 0.0235294117647059 W1_159_0
   + 0.6549019607843137 W1_176_0 + 0.5254901960784314 W1_177_0
   + 0.00784313725490196 W1_178_0 + 0.0666666666666667 W1_184_0
   + 0.5411764705882353 W1_185_0 + 0.9568627450980393 W1_186_0
   + 0.788235294117647 W1_187_0 + 0.1333333333333333 W1_188_0
   + 0.3529411764705883 W1_204_0 + 0.1176470588235294 W1_205_0
   + 0.2784313725490196 W1_214_0 + 0.8901960784313725 W1_215_0
   + 0.7686274509803922 W1_216_0 + 0.2705882352941176 W1_243_0
   + 0.9764705882352941 W1_244_0 + 0.2 W1_245_0
   + 0.1294117647058824 W1_271_0 + 0.996078431372549 W1_272_0
   + 0.4588235294117647 W1_273_0 + 0.1294117647058824 W1_299_0
   + 0.996078431372549 W1_300_0 + 0.4588235294117647 W1_301_0
   + 0.2509803921568627 W1_327_0 + 0.996078431372549 W1_328_0
   + 0.3372549019607843 W1_329_0 + 0.0352941176470588 W1_354_0
   + 0.7843137254901961 W1_355_0 + 0.8666666666666667 W1_356_0
   + 0.0352941176470588 W1_357_0 + 0.2901960784313726 W1_373_0
   + 0.5764705882352941 W1_374_0 + 0.4588235294117647 W1_375_0
   + 0.1450980392156863 W1_376_0 + 0.00784313725490196 W1_381_0
   + 0.5294117647058824 W1_382_0 + 0.9764705882352941 W1_383_0
   + 0.392156862745098 W1_384_0 + 0.3803921568627451 W1_401_0
   + 0.9921568627450981 W1_402_0 + 0.996078431372549 W1_403_0
   + 0.9803921568627451 W1_404_0 + 0.5882352941176471 W1_405_0
   + 0.1490196078431373 W1_406_0 + 0.5333333333333333 W1_409_0
   + 0.996078431372549 W1_410_0 + 0.7019607843137254 W1_411_0
   + 0.3215686274509804 W1_430_0 + 0.9215686274509803 W1_431_0
   + 0.996078431372549 W1_432_0 + 0.996078431372549 W1_433_0
   + 0.8745098039215686 W1_434_0 + 0.2901960784313726 W1_435_0
   + 0.6470588235294118 W1_436_0 + 0.996078431372549 W1_437_0
   + 0.6627450980392157 W1_438_0 + 0.0627450980392157 W1_439_0
   + 0.0627450980392157 W1_459_0 + 0.615686274509804 W1_460_0
   + 0.7450980392156863 W1_461_0 + 0.996078431372549 W1_462_0
   + 0.996078431372549 W1_463_0 + 0.996078431372549 W1_464_0
   + 0.4784313725490196 W1_465_0 + 0.0196078431372549 W1_466_0
   + 0.00392156862745098 W1_489_0 + 0.0823529411764706 W1_490_0
   + 0.592156862745098 W1_491_0 + 0.996078431372549 W1_492_0
   + 0.4509803921568628 W1_493_0 + 0.0117647058823529 W1_494_0
   + 0.3647058823529412 W1_520_0 + 0.9921568627450981 W1_521_0
   + 0.6352941176470588 W1_522_0 + 0.0196078431372549 W1_538_0
   + 0.0627450980392157 W1_539_0 + 0.3607843137254902 W1_549_0
   + 0.9803921568627451 W1_550_0 + 0.3647058823529412 W1_551_0
   + 0.403921568627451 W1_566_0 + 0.9019607843137255 W1_567_0
   + 0.3568627450980392 W1_568_0 + 0.0156862745098039 W1_569_0
   + 0.0196078431372549 W1_577_0 + 0.8588235294117647 W1_578_0
   + 0.8941176470588236 W1_579_0 + 0.0352941176470588 W1_580_0
   + 0.392156862745098 W1_594_0 + 0.996078431372549 W1_595_0
   + 0.996078431372549 W1_596_0 + 0.6745098039215687 W1_597_0
   + 0.0901960784313725 W1_598_0 + 0.0901960784313725 W1_605_0
   + 0.8666666666666667 W1_606_0 + 0.9686274509803922 W1_607_0
   + 0.1490196078431373 W1_608_0 + 0.0156862745098039 W1_622_0
   + 0.2549019607843137 W1_623_0 + 0.5882352941176471 W1_624_0
   + 0.9764705882352941 W1_625_0 + 0.9333333333333333 W1_626_0
   + 0.3686274509803922 W1_627_0 + 0.0705882352941176 W1_628_0
   + 0.1568627450980392 W1_631_0 + 0.5686274509803921 W1_632_0
   + 0.8313725490196079 W1_633_0 + 0.9764705882352941 W1_634_0
   + 0.5333333333333333 W1_635_0 + 0.2352941176470588 W1_653_0
   + 0.5725490196078431 W1_654_0 + W1_655_0 + 0.9647058823529412 W1_656_0
   + 0.6980392156862745 W1_657_0 + 0.803921568627451 W1_658_0
   + 0.9803921568627451 W1_659_0 + 0.996078431372549 W1_660_0
   + 0.6745098039215687 W1_661_0 + 0.2352941176470588 W1_662_0
   - 20 sign_inner_4_0 >= -19.999
 sign_0_pkj_neg_4_0: W1_0_0 + 0.1215686274509804 W1_121_0
   + 0.5764705882352941 W1_122_0 + 0.8784313725490196 W1_123_0
   + 0.7176470588235294 W1_124_0 + 0.7490196078431373 W1_125_0
   + 0.7843137254901961 W1_126_0 + 0.6823529411764706 W1_127_0
   + 0.3882352941176471 W1_128_0 + 0.0509803921568627 W1_129_0
   + 0.2313725490196079 W1_148_0 + 0.8666666666666667 W1_149_0
   + 0.9058823529411765 W1_150_0 + 0.6784313725490196 W1_151_0
   + 0.5490196078431373 W1_152_0 + 0.2705882352941176 W1_153_0
   + 0.5333333333333333 W1_154_0 + 0.5843137254901961 W1_155_0
   + 0.9137254901960784 W1_156_0 + 0.9882352941176471 W1_157_0
   + 0.4823529411764706 W1_158_0 + 0.0235294117647059 W1_159_0
   + 0.6549019607843137 W1_176_0 + 0.5254901960784314 W1_177_0
   + 0.00784313725490196 W1_178_0 + 0.0666666666666667 W1_184_0
   + 0.5411764705882353 W1_185_0 + 0.9568627450980393 W1_186_0
   + 0.788235294117647 W1_187_0 + 0.1333333333333333 W1_188_0
   + 0.3529411764705883 W1_204_0 + 0.1176470588235294 W1_205_0
   + 0.2784313725490196 W1_214_0 + 0.8901960784313725 W1_215_0
   + 0.7686274509803922 W1_216_0 + 0.2705882352941176 W1_243_0
   + 0.9764705882352941 W1_244_0 + 0.2 W1_245_0
   + 0.1294117647058824 W1_271_0 + 0.996078431372549 W1_272_0
   + 0.4588235294117647 W1_273_0 + 0.1294117647058824 W1_299_0
   + 0.996078431372549 W1_300_0 + 0.4588235294117647 W1_301_0
   + 0.2509803921568627 W1_327_0 + 0.996078431372549 W1_328_0
   + 0.3372549019607843 W1_329_0 + 0.0352941176470588 W1_354_0
   + 0.7843137254901961 W1_355_0 + 0.8666666666666667 W1_356_0
   + 0.0352941176470588 W1_357_0 + 0.2901960784313726 W1_373_0
   + 0.5764705882352941 W1_374_0 + 0.4588235294117647 W1_375_0
   + 0.1450980392156863 W1_376_0 + 0.00784313725490196 W1_381_0
   + 0.5294117647058824 W1_382_0 + 0.9764705882352941 W1_383_0
   + 0.392156862745098 W1_384_0 + 0.3803921568627451 W1_401_0
   + 0.9921568627450981 W1_402_0 + 0.996078431372549 W1_403_0
   + 0.9803921568627451 W1_404_0 + 0.5882352941176471 W1_405_0
   + 0.1490196078431373 W1_406_0 + 0.5333333333333333 W1_409_0
   + 0.996078431372549 W1_410_0 + 0.7019607843137254 W1_411_0
   + 0.3215686274509804 W1_430_0 + 0.9215686274509803 W1_431_0
   + 0.996078431372549 W1_432_0 + 0.996078431372549 W1_433_0
   + 0.8745098039215686 W1_434_0 + 0.2901960784313726 W1_435_0
   + 0.6470588235294118 W1_436_0 + 0.996078431372549 W1_437_0
   + 0.6627450980392157 W1_438_0 + 0.0627450980392157 W1_439_0
   + 0.0627450980392157 W1_459_0 + 0.615686274509804 W1_460_0
   + 0.7450980392156863 W1_461_0 + 0.996078431372549 W1_462_0
   + 0.996078431372549 W1_463_0 + 0.996078431372549 W1_464_0
   + 0.4784313725490196 W1_465_0 + 0.0196078431372549 W1_466_0
   + 0.00392156862745098 W1_489_0 + 0.0823529411764706 W1_490_0
   + 0.592156862745098 W1_491_0 + 0.996078431372549 W1_492_0
   + 0.4509803921568628 W1_493_0 + 0.0117647058823529 W1_494_0
   + 0.3647058823529412 W1_520_0 + 0.9921568627450981 W1_521_0
   + 0.6352941176470588 W1_522_0 + 0.0196078431372549 W1_538_0
   + 0.0627450980392157 W1_539_0 + 0.3607843137254902 W1_549_0
   + 0.9803921568627451 W1_550_0 + 0.3647058823529412 W1_551_0
   + 0.403921568627451 W1_566_0 + 0.9019607843137255 W1_567_0
   + 0.3568627450980392 W1_568_0 + 0.0156862745098039 W1_569_0
   + 0.0196078431372549 W1_577_0 + 0.8588235294117647 W1_578_0
   + 0.8941176470588236 W1_579_0 + 0.0352941176470588 W1_580_0
   + 0.392156862745098 W1_594_0 + 0.996078431372549 W1_595_0
   + 0.996078431372549 W1_596_0 + 0.6745098039215687 W1_597_0
   + 0.0901960784313725 W1_598_0 + 0.0901960784313725 W1_605_0
   + 0.8666666666666667 W1_606_0 + 0.9686274509803922 W1_607_0
   + 0.1490196078431373 W1_608_0 + 0.0156862745098039 W1_622_0
   + 0.2549019607843137 W1_623_0 + 0.5882352941176471 W1_624_0
   + 0.9764705882352941 W1_625_0 + 0.9333333333333333 W1_626_0
   + 0.3686274509803922 W1_627_0 + 0.0705882352941176 W1_628_0
   + 0.1568627450980392 W1_631_0 + 0.5686274509803921 W1_632_0
   + 0.8313725490196079 W1_633_0 + 0.9764705882352941 W1_634_0
   + 0.5333333333333333 W1_635_0 + 0.2352941176470588 W1_653_0
   + 0.5725490196078431 W1_654_0 + W1_655_0 + 0.9647058823529412 W1_656_0
   + 0.6980392156862745 W1_657_0 + 0.803921568627451 W1_658_0
   + 0.9803921568627451 W1_659_0 + 0.996078431372549 W1_660_0
   + 0.6745098039215687 W1_661_0 + 0.2352941176470588 W1_662_0
   - 20 sign_inner_4_0 <= 0
 sign_1_pkj_pos_4_1: W1_0_1 + 0.1215686274509804 W1_121_1
   + 0.5764705882352941 W1_122_1 + 0.8784313725490196 W1_123_1
   + 0.7176470588235294 W1_124_1 + 0.7490196078431373 W1_125_1
   + 0.7843137254901961 W1_126_1 + 0.6823529411764706 W1_127_1
   + 0.3882352941176471 W1_128_1 + 0.0509803921568627 W1_129_1
   + 0.2313725490196079 W1_148_1 + 0.8666666666666667 W1_149_1
   + 0.9058823529411765 W1_150_1 + 0.6784313725490196 W1_151_1
   + 0.5490196078431373 W1_152_1 + 0.2705882352941176 W1_153_1
   + 0.5333333333333333 W1_154_1 + 0.5843137254901961 W1_155_1
   + 0.9137254901960784 W1_156_1 + 0.9882352941176471 W1_157_1
   + 0.4823529411764706 W1_158_1 + 0.0235294117647059 W1_159_1
   + 0.6549019607843137 W1_176_1 + 0.5254901960784314 W1_177_1
   + 0.00784313725490196 W1_178_1 + 0.0666666666666667 W1_184_1
   + 0.5411764705882353 W1_185_1 + 0.9568627450980393 W1_186_1
   + 0.788235294117647 W1_187_1 + 0.1333333333333333 W1_188_1
   + 0.3529411764705883 W1_204_1 + 0.1176470588235294 W1_205_1
   + 0.2784313725490196 W1_214_1 + 0.8901960784313725 W1_215_1
   + 0.7686274509803922 W1_216_1 + 0.2705882352941176 W1_243_1
   + 0.9764705882352941 W1_244_1 + 0.2 W1_245_1
   + 0.1294117647058824 W1_271_1 + 0.996078431372549 W1_272_1
   + 0.4588235294117647 W1_273_1 + 0.1294117647058824 W1_299_1
   + 0.996078431372549 W1_300_1 + 0.4588235294117647 W1_301_1
   + 0.2509803921568627 W1_327_1 + 0.996078431372549 W1_328_1
   + 0.3372549019607843 W1_329_1 + 0.0352941176470588 W1_354_1
   + 0.7843137254901961 W1_355_1 + 0.8666666666666667 W1_356_1
   + 0.0352941176470588 W1_357_1 + 0.2901960784313726 W1_373_1
   + 0.5764705882352941 W1_374_1 + 0.4588235294117647 W1_375_1
   + 0.1450980392156863 W1_376_1 + 0.00784313725490196 W1_381_1
   + 0.5294117647058824 W1_382_1 + 0.9764705882352941 W1_383_1
   + 0.392156862745098 W1_384_1 + 0.3803921568627451 W1_401_1
   + 0.9921568627450981 W1_402_1 + 0.996078431372549 W1_403_1
   + 0.9803921568627451 W1_404_1 + 0.5882352941176471 W1_405_1
   + 0.1490196078431373 W1_406_1 + 0.5333333333333333 W1_409_1
   + 0.996078431372549 W1_410_1 + 0.7019607843137254 W1_411_1
   + 0.3215686274509804 W1_430_1 + 0.9215686274509803 W1_431_1
   + 0.996078431372549 W1_432_1 + 0.996078431372549 W1_433_1
   + 0.8745098039215686 W1_434_1 + 0.2901960784313726 W1_435_1
   + 0.6470588235294118 W1_436_1 + 0.996078431372549 W1_437_1
   + 0.6627450980392157 W1_438_1 + 0.0627450980392157 W1_439_1
   + 0.0627450980392157 W1_459_1 + 0.615686274509804 W1_460_1
   + 0.7450980392156863 W1_461_1 + 0.996078431372549 W1_462_1
   + 0.996078431372549 W1_463_1 + 0.996078431372549 W1_464_1
   + 0.4784313725490196 W1_465_1 + 0.0196078431372549 W1_466_1
   + 0.00392156862745098 W1_489_1 + 0.0823529411764706 W1_490_1
   + 0.592156862745098 W1_491_1 + 0.996078431372549 W1_492_1
   + 0.4509803921568628 W1_493_1 + 0.0117647058823529 W1_494_1
   + 0.3647058823529412 W1_520_1 + 0.9921568627450981 W1_521_1
   + 0.6352941176470588 W1_522_1 + 0.0196078431372549 W1_538_1
   + 0.0627450980392157 W1_539_1 + 0.3607843137254902 W1_549_1
   + 0.9803921568627451 W1_550_1 + 0.3647058823529412 W1_551_1
   + 0.403921568627451 W1_566_1 + 0.9019607843137255 W1_567_1
   + 0.3568627450980392 W1_568_1 + 0.0156862745098039 W1_569_1
   + 0.0196078431372549 W1_577_1 + 0.8588235294117647 W1_578_1
   + 0.8941176470588236 W1_579_1 + 0.0352941176470588 W1_580_1
   + 0.392156862745098 W1_594_1 + 0.996078431372549 W1_595_1
   + 0.996078431372549 W1_596_1 + 0.6745098039215687 W1_597_1
   + 0.0901960784313725 W1_598_1 + 0.0901960784313725 W1_605_1
   + 0.8666666666666667 W1_606_1 + 0.9686274509803922 W1_607_1
   + 0.1490196078431373 W1_608_1 + 0.0156862745098039 W1_622_1
   + 0.2549019607843137 W1_623_1 + 0.5882352941176471 W1_624_1
   + 0.9764705882352941 W1_625_1 + 0.9333333333333333 W1_626_1
   + 0.3686274509803922 W1_627_1 + 0.0705882352941176 W1_628_1
   + 0.1568627450980392 W1_631_1 + 0.5686274509803921 W1_632_1
   + 0.8313725490196079 W1_633_1 + 0.9764705882352941 W1_634_1
   + 0.5333333333333333 W1_635_1 + 0.2352941176470588 W1_653_1
   + 0.5725490196078431 W1_654_1 + W1_655_1 + 0.9647058823529412 W1_656_1
   + 0.6980392156862745 W1_657_1 + 0.803921568627451 W1_658_1
   + 0.9803921568627451 W1_659_1 + 0.996078431372549 W1_660_1
   + 0.6745098039215687 W1_661_1 + 0.2352941176470588 W1_662_1
   - 20 sign_inner_4_1 >= -19.999
 sign_0_pkj_neg_4_1: W1_0_1 + 0.1215686274509804 W1_121_1
   + 0.5764705882352941 W1_122_1 + 0.8784313725490196 W1_123_1
   + 0.7176470588235294 W1_124_1 + 0.7490196078431373 W1_125_1
   + 0.7843137254901961 W1_126_1 + 0.6823529411764706 W1_127_1
   + 0.3882352941176471 W1_128_1 + 0.0509803921568627 W1_129_1
   + 0.2313725490196079 W1_148_1 + 0.8666666666666667 W1_149_1
   + 0.9058823529411765 W1_150_1 + 0.6784313725490196 W1_151_1
   + 0.5490196078431373 W1_152_1 + 0.2705882352941176 W1_153_1
   + 0.5333333333333333 W1_154_1 + 0.5843137254901961 W1_155_1
   + 0.9137254901960784 W1_156_1 + 0.9882352941176471 W1_157_1
   + 0.4823529411764706 W1_158_1 + 0.0235294117647059 W1_159_1
   + 0.6549019607843137 W1_176_1 + 0.5254901960784314 W1_177_1
   + 0.00784313725490196 W1_178_1 + 0.0666666666666667 W1_184_1
   + 0.5411764705882353 W1_185_1 + 0.9568627450980393 W1_186_1
   + 0.788235294117647 W1_187_1 + 0.1333333333333333 W1_188_1
   + 0.3529411764705883 W1_204_1 + 0.1176470588235294 W1_205_1
   + 0.2784313725490196 W1_214_1 + 0.8901960784313725 W1_215_1
   + 0.7686274509803922 W1_216_1 + 0.2705882352941176 W1_243_1
   + 0.9764705882352941 W1_244_1 + 0.2 W1_245_1
   + 0.1294117647058824 W1_271_1 + 0.996078431372549 W1_272_1
   + 0.4588235294117647 W1_273_1 + 0.1294117647058824 W1_299_1
   + 0.996078431372549 W1_300_1 + 0.4588235294117647 W1_301_1
   + 0.2509803921568627 W1_327_1 + 0.996078431372549 W1_328_1
   + 0.3372549019607843 W1_329_1 + 0.0352941176470588 W1_354_1
   + 0.7843137254901961 W1_355_1 + 0.8666666666666667 W1_356_1
   + 0.0352941176470588 W1_357_1 + 0.2901960784313726 W1_373_1
   + 0.5764705882352941 W1_374_1 + 0.4588235294117647 W1_375_1
   + 0.1450980392156863 W1_376_1 + 0.00784313725490196 W1_381_1
   + 0.5294117647058824 W1_382_1 + 0.9764705882352941 W1_383_1
   + 0.392156862745098 W1_384_1 + 0.3803921568627451 W1_401_1
   + 0.9921568627450981 W1_402_1 + 0.996078431372549 W1_403_1
   + 0.9803921568627451 W1_404_1 + 0.5882352941176471 W1_405_1
   + 0.1490196078431373 W1_406_1 + 0.5333333333333333 W1_409_1
   + 0.996078431372549 W1_410_1 + 0.7019607843137254 W1_411_1
   + 0.3215686274509804 W1_430_1 + 0.9215686274509803 W1_431_1
   + 0.996078431372549 W1_432_1 + 0.996078431372549 W1_433_1
   + 0.8745098039215686 W1_434_1 + 0.2901960784313726 W1_435_1
   + 0.6470588235294118 W1_436_1 + 0.996078431372549 W1_437_1
   + 0.6627450980392157 W1_438_1 + 0.0627450980392157 W1_439_1
   + 0.0627450980392157 W1_459_1 + 0.615686274509804 W1_460_1
   + 0.7450980392156863 W1_461_1 + 0.996078431372549 W1_462_1
   + 0.996078431372549 W1_463_1 + 0.996078431372549 W1_464_1
   + 0.4784313725490196 W1_465_1 + 0.0196078431372549 W1_466_1
   + 0.00392156862745098 W1_489_1 + 0.0823529411764706 W1_490_1
   + 0.592156862745098 W1_491_1 + 0.996078431372549 W1_492_1
   + 0.4509803921568628 W1_493_1 + 0.0117647058823529 W1_494_1
   + 0.3647058823529412 W1_520_1 + 0.9921568627450981 W1_521_1
   + 0.6352941176470588 W1_522_1 + 0.0196078431372549 W1_538_1
   + 0.0627450980392157 W1_539_1 + 0.3607843137254902 W1_549_1
   + 0.9803921568627451 W1_550_1 + 0.3647058823529412 W1_551_1
   + 0.403921568627451 W1_566_1 + 0.9019607843137255 W1_567_1
   + 0.3568627450980392 W1_568_1 + 0.0156862745098039 W1_569_1
   + 0.0196078431372549 W1_577_1 + 0.8588235294117647 W1_578_1
   + 0.8941176470588236 W1_579_1 + 0.0352941176470588 W1_580_1
   + 0.392156862745098 W1_594_1 + 0.996078431372549 W1_595_1
   + 0.996078431372549 W1_596_1 + 0.6745098039215687 W1_597_1
   + 0.0901960784313725 W1_598_1 + 0.0901960784313725 W1_605_1
   + 0.8666666666666667 W1_606_1 + 0.9686274509803922 W1_607_1
   + 0.1490196078431373 W1_608_1 + 0.0156862745098039 W1_622_1
   + 0.2549019607843137 W1_623_1 + 0.5882352941176471 W1_624_1
   + 0.9764705882352941 W1_625_1 + 0.9333333333333333 W1_626_1
   + 0.3686274509803922 W1_627_1 + 0.0705882352941176 W1_628_1
   + 0.1568627450980392 W1_631_1 + 0.5686274509803921 W1_632_1
   + 0.8313725490196079 W1_633_1 + 0.9764705882352941 W1_634_1
   + 0.5333333333333333 W1_635_1 + 0.2352941176470588 W1_653_1
   + 0.5725490196078431 W1_654_1 + W1_655_1 + 0.9647058823529412 W1_656_1
   + 0.6980392156862745 W1_657_1 + 0.803921568627451 W1_658_1
   + 0.9803921568627451 W1_659_1 + 0.996078431372549 W1_660_1
   + 0.6745098039215687 W1_661_1 + 0.2352941176470588 W1_662_1
   - 20 sign_inner_4_1 <= 0
 sign_1_pkj_pos_5_0: W1_0_0 + 0.1137254901960784 W1_122_0
   + 0.4470588235294118 W1_123_0 + 0.6666666666666666 W1_124_0
   + 0.8862745098039215 W1_125_0 + W1_126_0 + 0.8862745098039215 W1_127_0
   + 0.5529411764705883 W1_128_0 + 0.1137254901960784 W1_129_0
   + 0.3372549019607843 W1_149_0 + 0.8862745098039215 W1_150_0 + W1_151_0
   + W1_152_0 + 0.6666666666666666 W1_153_0 + 0.4470588235294118 W1_154_0
   + 0.6666666666666666 W1_155_0 + W1_156_0 + 0.7764705882352941 W1_157_0
   + 0.1137254901960784 W1_158_0 + 0.4470588235294118 W1_176_0 + W1_177_0
   + 0.7764705882352941 W1_178_0 + 0.3372549019607843 W1_179_0
   + 0.3372549019607843 W1_184_0 + W1_185_0 + 0.6666666666666666 W1_186_0
   + 0.1137254901960784 W1_212_0 + W1_213_0 + 0.6666666666666666 W1_214_0
   + 0.3372549019607843 W1_240_0 + W1_241_0 + 0.4470588235294118 W1_242_0
   + 0.2235294117647059 W1_267_0 + 0.8862745098039215 W1_268_0
   + 0.8862745098039215 W1_269_0 + 0.4470588235294118 W1_294_0
   + 0.8862745098039215 W1_295_0 + W1_296_0 + 0.3372549019607843 W1_297_0
   + 0.2235294117647059 W1_319_0 + 0.6666666666666666 W1_320_0
   + 0.8862745098039215 W1_321_0 + W1_322_0 + W1_323_0
   + 0.5529411764705883 W1_324_0 + 0.2235294117647059 W1_347_0
   + 0.6666666666666666 W1_348_0 + 0.6666666666666666 W1_349_0
   + 0.6666666666666666 W1_350_0 + W1_351_0 + W1_352_0
   + 0.8862745098039215 W1_353_0 + 0.3372549019607843 W1_354_0
   + 0.1137254901960784 W1_379_0 + 0.6666666666666666 W1_380_0 + W1_381_0
   + W1_382_0 + 0.5529411764705883 W1_383_0 + 0.1137254901960784 W1_409_0
   + 0.6666666666666666 W1_410_0 + W1_411_0 + 0.5529411764705883 W1_412_0
   + 0.1137254901960784 W1_438_0 + 0.7764705882352941 W1_439_0 + W1_440_0
   + 0.2235294117647059 W1_441_0 + 0.2235294117647059 W1_467_0 + W1_468_0
   + 0.6666666666666666 W1_469_0 + W1_496_0 + 0.6666666666666666 W1_497_0
   + 0.3372549019607843 W1_523_0 + W1_524_0 + 0.5529411764705883 W1_525_0
   + 0.8862745098039215 W1_538_0 + 0.2235294117647059 W1_539_0
   + 0.1137254901960784 W1_550_0 + 0.8862745098039215 W1_551_0
   + 0.8862745098039215 W1_552_0 + 0.1137254901960784 W1_553_0 + W1_566_0
   + 0.4470588235294118 W1_567_0 + 0.3372549019607843 W1_577_0
   + 0.8862745098039215 W1_578_0 + W1_579_0 + 0.4470588235294118 W1_580_0
   + 0.7764705882352941 W1_594_0 + 0.8862745098039215 W1_595_0
   + 0.5529411764705883 W1_596_0 + 0.2235294117647059 W1_597_0
   + 0.3372549019607843 W1_603_0 + 0.8862745098039215 W1_604_0 + W1_605_0
   + W1_606_0 + 0.4470588235294118 W1_607_0 + 0.1137254901960784 W1_622_0
   + 0.7764705882352941 W1_623_0 + W1_624_0 + W1_625_0 + W1_626_0
   + W1_627_0 + 0.8862745098039215 W1_628_0 + 0.6666666666666666 W1_629_0
   + 0.8862745098039215 W1_630_0 + W1_631_0 + 0.8862745098039215 W1_632_0
   + 0.5529411764705883 W1_633_0 + 0.2235294117647059 W1_634_0
   + 0.1137254901960784 W1_651_0 + 0.4470588235294118 W1_652_0
   + 0.6666666666666666 W1_653_0 + 0.8862745098039215 W1_654_0
   + 0.8862745098039215 W1_655_0 + 0.6666666666666666 W1_656_0
   + 0.6666666666666666 W1_657_0 + 0.6666666666666666 W1_658_0
   + 0.4470588235294118 W1_659_0 + 0.1137254901960784 W1_660_0
   - 20 sign_inner_5_0 >= -19.999
 sign_0_pkj_neg_5_0: W1_0_0 + 0.1137254901960784 W1_122_0
   + 0.4470588235294118 W1_123_0 + 0.6666666666666666 W1_124_0
   + 0.8862745098039215 W1_125_0 + W1_126_0 + 0.8862745098039215 W1_127_0
   + 0.5529411764705883 W1_128_0 + 0.1137254901960784 W1_129_0
   + 0.3372549019607843 W1_149_0 + 0.8862745098039215 W1_150_0 + W1_151_0
   + W1_152_0 + 0.6666666666666666 W1_153_0 + 0.4470588235294118 W1_154_0
   + 0.6666666666666666 W1_155_0 + W1_156_0 + 0.7764705882352941 W1_157_0
   + 0.1137254901960784 W1_158_0 + 0.4470588235294118 W1_176_0 + W1_177_0
   + 0.7764705882352941 W1_178_0 + 0.3372549019607843 W1_179_0
   + 0.3372549019607843 W1_184_0 + W1_185_0 + 0.6666666666666666 W1_186_0
   + 0.1137254901960784 W1_212_0 + W1_213_0 + 0.6666666666666666 W1_214_0
   + 0.3372549019607843 W1_240_0 + W1_241_0 + 0.4470588235294118 W1_242_0
   + 0.2235294117647059 W1_267_0 + 0.8862745098039215 W1_268_0
   + 0.8862745098039215 W1_269_0 + 0.4470588235294118 W1_294_0
   + 0.8862745098039215 W1_295_0 + W1_296_0 + 0.3372549019607843 W1_297_0
   + 0.2235294117647059 W1_319_0 + 0.6666666666666666 W1_320_0
   + 0.8862745098039215 W1_321_0 + W1_322_0 + W1_323_0
   + 0.5529411764705883 W1_324_0 + 0.2235294117647059 W1_347_0
   + 0.6666666666666666 W1_348_0 + 0.6666666666666666 W1_349_0
   + 0.6666666666666666 W1_350_0 + W1_351_0 + W1_352_0
   + 0.8862745098039215 W1_353_0 + 0.3372549019607843 W1_354_0
   + 0.1137254901960784 W1_379_0 + 0.6666666666666666 W1_380_0 + W1_381_0
   + W1_382_0 + 0.5529411764705883 W1_383_0 + 0.1137254901960784 W1_409_0
   + 0.6666666666666666 W1_410_0 + W1_411_0 + 0.5529411764705883 W1_412_0
   + 0.1137254901960784 W1_438_0 + 0.7764705882352941 W1_439_0 + W1_440_0
   + 0.2235294117647059 W1_441_0 + 0.2235294117647059 W1_467_0 + W1_468_0
   + 0.6666666666666666 W1_469_0 + W1_496_0 + 0.6666666666666666 W1_497_0
   + 0.3372549019607843 W1_523_0 + W1_524_0 + 0.5529411764705883 W1_525_0
   + 0.8862745098039215 W1_538_0 + 0.2235294117647059 W1_539_0
   + 0.1137254901960784 W1_550_0 + 0.8862745098039215 W1_551_0
   + 0.8862745098039215 W1_552_0 + 0.1137254901960784 W1_553_0 + W1_566_0
   + 0.4470588235294118 W1_567_0 + 0.3372549019607843 W1_577_0
   + 0.8862745098039215 W1_578_0 + W1_579_0 + 0.4470588235294118 W1_580_0
   + 0.7764705882352941 W1_594_0 + 0.8862745098039215 W1_595_0
   + 0.5529411764705883 W1_596_0 + 0.2235294117647059 W1_597_0
   + 0.3372549019607843 W1_603_0 + 0.8862745098039215 W1_604_0 + W1_605_0
   + W1_606_0 + 0.4470588235294118 W1_607_0 + 0.1137254901960784 W1_622_0
   + 0.7764705882352941 W1_623_0 + W1_624_0 + W1_625_0 + W1_626_0
   + W1_627_0 + 0.8862745098039215 W1_628_0 + 0.6666666666666666 W1_629_0
   + 0.8862745098039215 W1_630_0 + W1_631_0 + 0.8862745098039215 W1_632_0
   + 0.5529411764705883 W1_633_0 + 0.2235294117647059 W1_634_0
   + 0.1137254901960784 W1_651_0 + 0.4470588235294118 W1_652_0
   + 0.6666666666666666 W1_653_0 + 0.8862745098039215 W1_654_0
   + 0.8862745098039215 W1_655_0 + 0.6666666666666666 W1_656_0
   + 0.6666666666666666 W1_657_0 + 0.6666666666666666 W1_658_0
   + 0.4470588235294118 W1_659_0 + 0.1137254901960784 W1_660_0
   - 20 sign_inner_5_0 <= 0
 sign_1_pkj_pos_5_1: W1_0_1 + 0.1137254901960784 W1_122_1
   + 0.4470588235294118 W1_123_1 + 0.6666666666666666 W1_124_1
   + 0.8862745098039215 W1_125_1 + W1_126_1 + 0.8862745098039215 W1_127_1
   + 0.5529411764705883 W1_128_1 + 0.1137254901960784 W1_129_1
   + 0.3372549019607843 W1_149_1 + 0.8862745098039215 W1_150_1 + W1_151_1
   + W1_152_1 + 0.6666666666666666 W1_153_1 + 0.4470588235294118 W1_154_1
   + 0.6666666666666666 W1_155_1 + W1_156_1 + 0.7764705882352941 W1_157_1
   + 0.1137254901960784 W1_158_1 + 0.4470588235294118 W1_176_1 + W1_177_1
   + 0.7764705882352941 W1_178_1 + 0.3372549019607843 W1_179_1
   + 0.3372549019607843 W1_184_1 + W1_185_1 + 0.6666666666666666 W1_186_1
   + 0.1137254901960784 W1_212_1 + W1_213_1 + 0.6666666666666666 W1_214_1
   + 0.3372549019607843 W1_240_1 + W1_241_1 + 0.4470588235294118 W1_242_1
   + 0.2235294117647059 W1_267_1 + 0.8862745098039215 W1_268_1
   + 0.8862745098039215 W1_269_1 + 0.4470588235294118 W1_294_1
   + 0.8862745098039215 W1_295_1 + W1_296_1 + 0.3372549019607843 W1_297_1
   + 0.2235294117647059 W1_319_1 + 0.6666666666666666 W1_320_1
   + 0.8862745098039215 W1_321_1 + W1_322_1 + W1_323_1
   + 0.5529411764705883 W1_324_1 + 0.2235294117647059 W1_347_1
   + 0.6666666666666666 W1_348_1 + 0.6666666666666666 W1_349_1
   + 0.6666666666666666 W1_350_1 + W1_351_1 + W1_352_1
   + 0.8862745098039215 W1_353_1 + 0.3372549019607843 W1_354_1
   + 0.1137254901960784 W1_379_1 + 0.6666666666666666 W1_380_1 + W1_381_1
   + W1_382_1 + 0.5529411764705883 W1_383_1 + 0.1137254901960784 W1_409_1
   + 0.6666666666666666 W1_410_1 + W1_411_1 + 0.5529411764705883 W1_412_1
   + 0.1137254901960784 W1_438_1 + 0.7764705882352941 W1_439_1 + W1_440_1
   + 0.2235294117647059 W1_441_1 + 0.2235294117647059 W1_467_1 + W1_468_1
   + 0.6666666666666666 W1_469_1 + W1_496_1 + 0.6666666666666666 W1_497_1
   + 0.3372549019607843 W1_523_1 + W1_524_1 + 0.5529411764705883 W1_525_1
   + 0.8862745098039215 W1_538_1 + 0.2235294117647059 W1_539_1
   + 0.1137254901960784 W1_550_1 + 0.8862745098039215 W1_551_1
   + 0.8862745098039215 W1_552_1 + 0.1137254901960784 W1_553_1 + W1_566_1
   + 0.4470588235294118 W1_567_1 + 0.3372549019607843 W1_577_1
   + 0.8862745098039215 W1_578_1 + W1_579_1 + 0.4470588235294118 W1_580_1
   + 0.7764705882352941 W1_594_1 + 0.8862745098039215 W1_595_1
   + 0.5529411764705883 W1_596_1 + 0.2235294117647059 W1_597_1
   + 0.3372549019607843 W1_603_1 + 0.8862745098039215 W1_604_1 + W1_605_1
   + W1_606_1 + 0.4470588235294118 W1_607_1 + 0.1137254901960784 W1_622_1
   + 0.7764705882352941 W1_623_1 + W1_624_1 + W1_625_1 + W1_626_1
   + W1_627_1 + 0.8862745098039215 W1_628_1 + 0.6666666666666666 W1_629_1
   + 0.8862745098039215 W1_630_1 + W1_631_1 + 0.8862745098039215 W1_632_1
   + 0.5529411764705883 W1_633_1 + 0.2235294117647059 W1_634_1
   + 0.1137254901960784 W1_651_1 + 0.4470588235294118 W1_652_1
   + 0.6666666666666666 W1_653_1 + 0.8862745098039215 W1_654_1
   + 0.8862745098039215 W1_655_1 + 0.6666666666666666 W1_656_1
   + 0.6666666666666666 W1_657_1 + 0.6666666666666666 W1_658_1
   + 0.4470588235294118 W1_659_1 + 0.1137254901960784 W1_660_1
   - 20 sign_inner_5_1 >= -19.999
 sign_0_pkj_neg_5_1: W1_0_1 + 0.1137254901960784 W1_122_1
   + 0.4470588235294118 W1_123_1 + 0.6666666666666666 W1_124_1
   + 0.8862745098039215 W1_125_1 + W1_126_1 + 0.8862745098039215 W1_127_1
   + 0.5529411764705883 W1_128_1 + 0.1137254901960784 W1_129_1
   + 0.3372549019607843 W1_149_1 + 0.8862745098039215 W1_150_1 + W1_151_1
   + W1_152_1 + 0.6666666666666666 W1_153_1 + 0.4470588235294118 W1_154_1
   + 0.6666666666666666 W1_155_1 + W1_156_1 + 0.7764705882352941 W1_157_1
   + 0.1137254901960784 W1_158_1 + 0.4470588235294118 W1_176_1 + W1_177_1
   + 0.7764705882352941 W1_178_1 + 0.3372549019607843 W1_179_1
   + 0.3372549019607843 W1_184_1 + W1_185_1 + 0.6666666666666666 W1_186_1
   + 0.1137254901960784 W1_212_1 + W1_213_1 + 0.6666666666666666 W1_214_1
   + 0.3372549019607843 W1_240_1 + W1_241_1 + 0.4470588235294118 W1_242_1
   + 0.2235294117647059 W1_267_1 + 0.8862745098039215 W1_268_1
   + 0.8862745098039215 W1_269_1 + 0.4470588235294118 W1_294_1
   + 0.8862745098039215 W1_295_1 + W1_296_1 + 0.3372549019607843 W1_297_1
   + 0.2235294117647059 W1_319_1 + 0.6666666666666666 W1_320_1
   + 0.8862745098039215 W1_321_1 + W1_322_1 + W1_323_1
   + 0.5529411764705883 W1_324_1 + 0.2235294117647059 W1_347_1
   + 0.6666666666666666 W1_348_1 + 0.6666666666666666 W1_349_1
   + 0.6666666666666666 W1_350_1 + W1_351_1 + W1_352_1
   + 0.8862745098039215 W1_353_1 + 0.3372549019607843 W1_354_1
   + 0.1137254901960784 W1_379_1 + 0.6666666666666666 W1_380_1 + W1_381_1
   + W1_382_1 + 0.5529411764705883 W1_383_1 + 0.1137254901960784 W1_409_1
   + 0.6666666666666666 W1_410_1 + W1_411_1 + 0.5529411764705883 W1_412_1
   + 0.1137254901960784 W1_438_1 + 0.7764705882352941 W1_439_1 + W1_440_1
   + 0.2235294117647059 W1_441_1 + 0.2235294117647059 W1_467_1 + W1_468_1
   + 0.6666666666666666 W1_469_1 + W1_496_1 + 0.6666666666666666 W1_497_1
   + 0.3372549019607843 W1_523_1 + W1_524_1 + 0.5529411764705883 W1_525_1
   + 0.8862745098039215 W1_538_1 + 0.2235294117647059 W1_539_1
   + 0.1137254901960784 W1_550_1 + 0.8862745098039215 W1_551_1
   + 0.8862745098039215 W1_552_1 + 0.1137254901960784 W1_553_1 + W1_566_1
   + 0.4470588235294118 W1_567_1 + 0.3372549019607843 W1_577_1
   + 0.8862745098039215 W1_578_1 + W1_579_1 + 0.4470588235294118 W1_580_1
   + 0.7764705882352941 W1_594_1 + 0.8862745098039215 W1_595_1
   + 0.5529411764705883 W1_596_1 + 0.2235294117647059 W1_597_1
   + 0.3372549019607843 W1_603_1 + 0.8862745098039215 W1_604_1 + W1_605_1
   + W1_606_1 + 0.4470588235294118 W1_607_1 + 0.1137254901960784 W1_622_1
   + 0.7764705882352941 W1_623_1 + W1_624_1 + W1_625_1 + W1_626_1
   + W1_627_1 + 0.8862745098039215 W1_628_1 + 0.6666666666666666 W1_629_1
   + 0.8862745098039215 W1_630_1 + W1_631_1 + 0.8862745098039215 W1_632_1
   + 0.5529411764705883 W1_633_1 + 0.2235294117647059 W1_634_1
   + 0.1137254901960784 W1_651_1 + 0.4470588235294118 W1_652_1
   + 0.6666666666666666 W1_653_1 + 0.8862745098039215 W1_654_1
   + 0.8862745098039215 W1_655_1 + 0.6666666666666666 W1_656_1
   + 0.6666666666666666 W1_657_1 + 0.6666666666666666 W1_658_1
   + 0.4470588235294118 W1_659_1 + 0.1137254901960784 W1_660_1
   - 20 sign_inner_5_1 <= 0
 sign_1_pkj_pos_6_0: W1_0_0 + 0.1568627450980392 W1_160_0
   + 0.9098039215686274 W1_161_0 + 0.7372549019607844 W1_162_0
   + 0.7411764705882353 W1_188_0 + 0.996078431372549 W1_189_0
   + 0.6392156862745098 W1_190_0 + 0.0627450980392157 W1_208_0
   + 0.5803921568627451 W1_209_0 + 0.0980392156862745 W1_210_0
   + 0.1843137254901961 W1_215_0 + 0.9921568627450981 W1_216_0
   + 0.9647058823529412 W1_217_0 + 0.1098039215686274 W1_218_0
   + 0.7333333333333333 W1_236_0 + 0.996078431372549 W1_237_0
   + 0.3843137254901961 W1_238_0 + 0.7490196078431373 W1_243_0 + W1_244_0
   + 0.4196078431372549 W1_245_0 + 0.4980392156862745 W1_263_0
   + 0.9921568627450981 W1_264_0 + 0.8862745098039215 W1_265_0
   + 0.0627450980392157 W1_266_0 + 0.0627450980392157 W1_270_0
   + 0.9019607843137255 W1_271_0 + 0.9568627450980393 W1_272_0
   + 0.1098039215686274 W1_273_0 + 0.2196078431372549 W1_290_0
   + 0.9568627450980393 W1_291_0 + 0.9490196078431372 W1_292_0
   + 0.2745098039215687 W1_293_0 + 0.6078431372549019 W1_298_0
   + 0.996078431372549 W1_299_0 + 0.4235294117647059 W1_300_0
   + 0.0588235294117647 W1_317_0 + 0.9019607843137255 W1_318_0
   + 0.996078431372549 W1_319_0 + 0.5294117647058824 W1_320_0
   + 0.0705882352941176 W1_325_0 + 0.9019607843137255 W1_326_0
   + 0.9490196078431372 W1_327_0 + 0.1137254901960784 W1_328_0
   + 0.6235294117647059 W1_345_0 + W1_346_0 + 0.7372549019607844 W1_347_0
   + 0.0549019607843137 W1_348_0 + 0.4901960784313725 W1_353_0 + W1_354_0
   + 0.7294117647058823 W1_355_0 + 0.0156862745098039 W1_356_0
   + 0.207843137254902 W1_357_0 + 0.4313725490196079 W1_358_0
   + 0.207843137254902 W1_372_0 + 0.9686274509803922 W1_373_0
   + 0.996078431372549 W1_374_0 + 0.2705882352941176 W1_375_0
   + 0.0235294117647059 W1_376_0 + 0.0274509803921569 W1_380_0
   + 0.8352941176470589 W1_381_0 + 0.996078431372549 W1_382_0
   + 0.7098039215686275 W1_383_0 + 0.8745098039215686 W1_384_0
   + 0.996078431372549 W1_385_0 + 0.7215686274509804 W1_386_0
   + 0.8980392156862745 W1_400_0 + 0.996078431372549 W1_401_0
   + 0.996078431372549 W1_402_0 + 0.996078431372549 W1_403_0
   + 0.8666666666666667 W1_404_0 + 0.8470588235294118 W1_405_0
   + 0.8470588235294118 W1_406_0 + 0.796078431372549 W1_407_0
   + 0.807843137254902 W1_408_0 + 0.996078431372549 W1_409_0
   + 0.996078431372549 W1_410_0 + 0.996078431372549 W1_411_0
   + 0.9294117647058824 W1_412_0 + 0.4509803921568628 W1_413_0
   + 0.0431372549019608 W1_414_0 + 0.3450980392156863 W1_427_0
   + 0.9882352941176471 W1_428_0 + 0.996078431372549 W1_429_0
   + 0.8588235294117647 W1_430_0 + 0.8431372549019608 W1_431_0
   + 0.8745098039215686 W1_432_0 + 0.996078431372549 W1_433_0
   + 0.996078431372549 W1_434_0 + 0.996078431372549 W1_435_0
   + 0.996078431372549 W1_436_0 + 0.996078431372549 W1_437_0
   + 0.7294117647058823 W1_438_0 + 0.2470588235294118 W1_439_0
   + 0.1019607843137255 W1_440_0 + 0.9686274509803922 W1_455_0 + W1_456_0
   + 0.5803921568627451 W1_457_0 + 0.0156862745098039 W1_458_0
   + 0.0392156862745098 W1_460_0 + 0.1843137254901961 W1_461_0
   + 0.1843137254901961 W1_462_0 + 0.3098039215686275 W1_463_0 + W1_464_0
   + 0.9803921568627451 W1_465_0 + 0.1882352941176471 W1_466_0
   + 0.5058823529411764 W1_483_0 + 0.5764705882352941 W1_484_0
   + 0.0156862745098039 W1_485_0 + 0.5803921568627451 W1_491_0
   + 0.996078431372549 W1_492_0 + 0.6823529411764706 W1_493_0
   + 0.0196078431372549 W1_518_0 + 0.8470588235294118 W1_519_0 + W1_520_0
   + 0.203921568627451 W1_521_0 + 0.3176470588235294 W1_546_0
   + 0.996078431372549 W1_547_0 + 0.8941176470588236 W1_548_0
   + 0.0509803921568627 W1_549_0 + 0.6470588235294118 W1_574_0
   + 0.996078431372549 W1_575_0 + 0.5843137254901961 W1_576_0
   + 0.8470588235294118 W1_602_0 + 0.996078431372549 W1_603_0
   + 0.1843137254901961 W1_604_0 + 0.8470588235294118 W1_630_0
   + 0.9411764705882353 W1_631_0 + 0.1176470588235294 W1_632_0
   + 0.8470588235294118 W1_658_0 + 0.7294117647058823 W1_659_0
   + 0.8470588235294118 W1_686_0 + 0.8431372549019608 W1_687_0
   - 20 sign_inner_6_0 >= -19.999
 sign_0_pkj_neg_6_0: W1_0_0 + 0.1568627450980392 W1_160_0
   + 0.9098039215686274 W1_161_0 + 0.7372549019607844 W1_162_0
   + 0.7411764705882353 W1_188_0 + 0.996078431372549 W1_189_0
   + 0.6392156862745098 W1_190_0 + 0.0627450980392157 W1_208_0
   + 0.5803921568627451 W1_209_0 + 0.0980392156862745 W1_210_0
   + 0.1843137254901961 W1_215_0 + 0.9921568627450981 W1_216_0
   + 0.9647058823529412 W1_217_0 + 0.1098039215686274 W1_218_0
   + 0.7333333333333333 W1_236_0 + 0.996078431372549 W1_237_0
   + 0.3843137254901961 W1_238_0 + 0.7490196078431373 W1_243_0 + W1_244_0
   + 0.4196078431372549 W1_245_0 + 0.4980392156862745 W1_263_0
   + 0.9921568627450981 W1_264_0 + 0.8862745098039215 W1_265_0
   + 0.0627450980392157 W1_266_0 + 0.0627450980392157 W1_270_0
   + 0.9019607843137255 W1_271_0 + 0.9568627450980393 W1_272_0
   + 0.1098039215686274 W1_273_0 + 0.2196078431372549 W1_290_0
   + 0.9568627450980393 W1_291_0 + 0.9490196078431372 W1_292_0
   + 0.2745098039215687 W1_293_0 + 0.6078431372549019 W1_298_0
   + 0.996078431372549 W1_299_0 + 0.4235294117647059 W1_300_0
   + 0.0588235294117647 W1_317_0 + 0.9019607843137255 W1_318_0
   + 0.996078431372549 W1_319_0 + 0.5294117647058824 W1_320_0
   + 0.0705882352941176 W1_325_0 + 0.9019607843137255 W1_326_0
   + 0.9490196078431372 W1_327_0 + 0.1137254901960784 W1_328_0
   + 0.6235294117647059 W1_345_0 + W1_346_0 + 0.7372549019607844 W1_347_0
   + 0.0549019607843137 W1_348_0 + 0.4901960784313725 W1_353_0 + W1_354_0
   + 0.7294117647058823 W1_355_0 + 0.0156862745098039 W1_356_0
   + 0.207843137254902 W1_357_0 + 0.4313725490196079 W1_358_0
   + 0.207843137254902 W1_372_0 + 0.9686274509803922 W1_373_0
   + 0.996078431372549 W1_374_0 + 0.2705882352941176 W1_375_0
   + 0.0235294117647059 W1_376_0 + 0.0274509803921569 W1_380_0
   + 0.8352941176470589 W1_381_0 + 0.996078431372549 W1_382_0
   + 0.7098039215686275 W1_383_0 + 0.8745098039215686 W1_384_0
   + 0.996078431372549 W1_385_0 + 0.7215686274509804 W1_386_0
   + 0.8980392156862745 W1_400_0 + 0.996078431372549 W1_401_0
   + 0.996078431372549 W1_402_0 + 0.996078431372549 W1_403_0
   + 0.8666666666666667 W1_404_0 + 0.8470588235294118 W1_405_0
   + 0.8470588235294118 W1_406_0 + 0.796078431372549 W1_407_0
   + 0.807843137254902 W1_408_0 + 0.996078431372549 W1_409_0
   + 0.996078431372549 W1_410_0 + 0.996078431372549 W1_411_0
   + 0.9294117647058824 W1_412_0 + 0.4509803921568628 W1_413_0
   + 0.0431372549019608 W1_414_0 + 0.3450980392156863 W1_427_0
   + 0.9882352941176471 W1_428_0 + 0.996078431372549 W1_429_0
   + 0.8588235294117647 W1_430_0 + 0.8431372549019608 W1_431_0
   + 0.8745098039215686 W1_432_0 + 0.996078431372549 W1_433_0
   + 0.996078431372549 W1_434_0 + 0.996078431372549 W1_435_0
   + 0.996078431372549 W1_436_0 + 0.996078431372549 W1_437_0
   + 0.7294117647058823 W1_438_0 + 0.2470588235294118 W1_439_0
   + 0.1019607843137255 W1_440_0 + 0.9686274509803922 W1_455_0 + W1_456_0
   + 0.5803921568627451 W1_457_0 + 0.0156862745098039 W1_458_0
   + 0.0392156862745098 W1_460_0 + 0.1843137254901961 W1_461_0
   + 0.1843137254901961 W1_462_0 + 0.3098039215686275 W1_463_0 + W1_464_0
   + 0.9803921568627451 W1_465_0 + 0.1882352941176471 W1_466_0
   + 0.5058823529411764 W1_483_0 + 0.5764705882352941 W1_484_0
   + 0.0156862745098039 W1_485_0 + 0.5803921568627451 W1_491_0
   + 0.996078431372549 W1_492_0 + 0.6823529411764706 W1_493_0
   + 0.0196078431372549 W1_518_0 + 0.8470588235294118 W1_519_0 + W1_520_0
   + 0.203921568627451 W1_521_0 + 0.3176470588235294 W1_546_0
   + 0.996078431372549 W1_547_0 + 0.8941176470588236 W1_548_0
   + 0.0509803921568627 W1_549_0 + 0.6470588235294118 W1_574_0
   + 0.996078431372549 W1_575_0 + 0.5843137254901961 W1_576_0
   + 0.8470588235294118 W1_602_0 + 0.996078431372549 W1_603_0
   + 0.1843137254901961 W1_604_0 + 0.8470588235294118 W1_630_0
   + 0.9411764705882353 W1_631_0 + 0.1176470588235294 W1_632_0
   + 0.8470588235294118 W1_658_0 + 0.7294117647058823 W1_659_0
   + 0.8470588235294118 W1_686_0 + 0.8431372549019608 W1_687_0
   - 20 sign_inner_6_0 <= 0
 sign_1_pkj_pos_6_1: W1_0_1 + 0.1568627450980392 W1_160_1
   + 0.9098039215686274 W1_161_1 + 0.7372549019607844 W1_162_1
   + 0.7411764705882353 W1_188_1 + 0.996078431372549 W1_189_1
   + 0.6392156862745098 W1_190_1 + 0.0627450980392157 W1_208_1
   + 0.5803921568627451 W1_209_1 + 0.0980392156862745 W1_210_1
   + 0.1843137254901961 W1_215_1 + 0.9921568627450981 W1_216_1
   + 0.9647058823529412 W1_217_1 + 0.1098039215686274 W1_218_1
   + 0.7333333333333333 W1_236_1 + 0.996078431372549 W1_237_1
   + 0.3843137254901961 W1_238_1 + 0.7490196078431373 W1_243_1 + W1_244_1
   + 0.4196078431372549 W1_245_1 + 0.4980392156862745 W1_263_1
   + 0.9921568627450981 W1_264_1 + 0.8862745098039215 W1_265_1
   + 0.0627450980392157 W1_266_1 + 0.0627450980392157 W1_270_1
   + 0.9019607843137255 W1_271_1 + 0.9568627450980393 W1_272_1
   + 0.1098039215686274 W1_273_1 + 0.2196078431372549 W1_290_1
   + 0.9568627450980393 W1_291_1 + 0.9490196078431372 W1_292_1
   + 0.2745098039215687 W1_293_1 + 0.6078431372549019 W1_298_1
   + 0.996078431372549 W1_299_1 + 0.4235294117647059 W1_300_1
   + 0.0588235294117647 W1_317_1 + 0.9019607843137255 W1_318_1
   + 0.996078431372549 W1_319_1 + 0.5294117647058824 W1_320_1
   + 0.0705882352941176 W1_325_1 + 0.9019607843137255 W1_326_1
   + 0.9490196078431372 W1_327_1 + 0.1137254901960784 W1_328_1
   + 0.6235294117647059 W1_345_1 + W1_346_1 + 0.7372549019607844 W1_347_1
   + 0.0549019607843137 W1_348_1 + 0.4901960784313725 W1_353_1 + W1_354_1
   + 0.7294117647058823 W1_355_1 + 0.0156862745098039 W1_356_1
   + 0.207843137254902 W1_357_1 + 0.4313725490196079 W1_358_1
   + 0.207843137254902 W1_372_1 + 0.9686274509803922 W1_373_1
   + 0.996078431372549 W1_374_1 + 0.2705882352941176 W1_375_1
   + 0.0235294117647059 W1_376_1 + 0.0274509803921569 W1_380_1
   + 0.8352941176470589 W1_381_1 + 0.996078431372549 W1_382_1
   + 0.7098039215686275 W1_383_1 + 0.8745098039215686 W1_384_1
   + 0.996078431372549 W1_385_1 + 0.7215686274509804 W1_386_1
   + 0.8980392156862745 W1_400_1 + 0.996078431372549 W1_401_1
   + 0.996078431372549 W1_402_1 + 0.996078431372549 W1_403_1
   + 0.8666666666666667 W1_404_1 + 0.8470588235294118 W1_405_1
   + 0.8470588235294118 W1_406_1 + 0.796078431372549 W1_407_1
   + 0.807843137254902 W1_408_1 + 0.996078431372549 W1_409_1
   + 0.996078431372549 W1_410_1 + 0.996078431372549 W1_411_1
   + 0.9294117647058824 W1_412_1 + 0.4509803921568628 W1_413_1
   + 0.0431372549019608 W1_414_1 + 0.3450980392156863 W1_427_1
   + 0.9882352941176471 W1_428_1 + 0.996078431372549 W1_429_1
   + 0.8588235294117647 W1_430_1 + 0.8431372549019608 W1_431_1
   + 0.8745098039215686 W1_432_1 + 0.996078431372549 W1_433_1
   + 0.996078431372549 W1_434_1 + 0.996078431372549 W1_435_1
   + 0.996078431372549 W1_436_1 + 0.996078431372549 W1_437_1
   + 0.7294117647058823 W1_438_1 + 0.2470588235294118 W1_439_1
   + 0.1019607843137255 W1_440_1 + 0.9686274509803922 W1_455_1 + W1_456_1
   + 0.5803921568627451 W1_457_1 + 0.0156862745098039 W1_458_1
   + 0.0392156862745098 W1_460_1 + 0.1843137254901961 W1_461_1
   + 0.1843137254901961 W1_462_1 + 0.3098039215686275 W1_463_1 + W1_464_1
   + 0.9803921568627451 W1_465_1 + 0.1882352941176471 W1_466_1
   + 0.5058823529411764 W1_483_1 + 0.5764705882352941 W1_484_1
   + 0.0156862745098039 W1_485_1 + 0.5803921568627451 W1_491_1
   + 0.996078431372549 W1_492_1 + 0.6823529411764706 W1_493_1
   + 0.0196078431372549 W1_518_1 + 0.8470588235294118 W1_519_1 + W1_520_1
   + 0.203921568627451 W1_521_1 + 0.3176470588235294 W1_546_1
   + 0.996078431372549 W1_547_1 + 0.8941176470588236 W1_548_1
   + 0.0509803921568627 W1_549_1 + 0.6470588235294118 W1_574_1
   + 0.996078431372549 W1_575_1 + 0.5843137254901961 W1_576_1
   + 0.8470588235294118 W1_602_1 + 0.996078431372549 W1_603_1
   + 0.1843137254901961 W1_604_1 + 0.8470588235294118 W1_630_1
   + 0.9411764705882353 W1_631_1 + 0.1176470588235294 W1_632_1
   + 0.8470588235294118 W1_658_1 + 0.7294117647058823 W1_659_1
   + 0.8470588235294118 W1_686_1 + 0.8431372549019608 W1_687_1
   - 20 sign_inner_6_1 >= -19.999
 sign_0_pkj_neg_6_1: W1_0_1 + 0.1568627450980392 W1_160_1
   + 0.9098039215686274 W1_161_1 + 0.7372549019607844 W1_162_1
   + 0.7411764705882353 W1_188_1 + 0.996078431372549 W1_189_1
   + 0.6392156862745098 W1_190_1 + 0.0627450980392157 W1_208_1
   + 0.5803921568627451 W1_209_1 + 0.0980392156862745 W1_210_1
   + 0.1843137254901961 W1_215_1 + 0.9921568627450981 W1_216_1
   + 0.9647058823529412 W1_217_1 + 0.1098039215686274 W1_218_1
   + 0.7333333333333333 W1_236_1 + 0.996078431372549 W1_237_1
   + 0.3843137254901961 W1_238_1 + 0.7490196078431373 W1_243_1 + W1_244_1
   + 0.4196078431372549 W1_245_1 + 0.4980392156862745 W1_263_1
   + 0.9921568627450981 W1_264_1 + 0.8862745098039215 W1_265_1
   + 0.0627450980392157 W1_266_1 + 0.0627450980392157 W1_270_1
   + 0.9019607843137255 W1_271_1 + 0.9568627450980393 W1_272_1
   + 0.1098039215686274 W1_273_1 + 0.2196078431372549 W1_290_1
   + 0.9568627450980393 W1_291_1 + 0.9490196078431372 W1_292_1
   + 0.2745098039215687 W1_293_1 + 0.6078431372549019 W1_298_1
   + 0.996078431372549 W1_299_1 + 0.4235294117647059 W1_300_1
   + 0.0588235294117647 W1_317_1 + 0.9019607843137255 W1_318_1
   + 0.996078431372549 W1_319_1 + 0.5294117647058824 W1_320_1
   + 0.0705882352941176 W1_325_1 + 0.9019607843137255 W1_326_1
   + 0.9490196078431372 W1_327_1 + 0.1137254901960784 W1_328_1
   + 0.6235294117647059 W1_345_1 + W1_346_1 + 0.7372549019607844 W1_347_1
   + 0.0549019607843137 W1_348_1 + 0.4901960784313725 W1_353_1 + W1_354_1
   + 0.7294117647058823 W1_355_1 + 0.0156862745098039 W1_356_1
   + 0.207843137254902 W1_357_1 + 0.4313725490196079 W1_358_1
   + 0.207843137254902 W1_372_1 + 0.9686274509803922 W1_373_1
   + 0.996078431372549 W1_374_1 + 0.2705882352941176 W1_375_1
   + 0.0235294117647059 W1_376_1 + 0.0274509803921569 W1_380_1
   + 0.8352941176470589 W1_381_1 + 0.996078431372549 W1_382_1
   + 0.7098039215686275 W1_383_1 + 0.8745098039215686 W1_384_1
   + 0.996078431372549 W1_385_1 + 0.7215686274509804 W1_386_1
   + 0.8980392156862745 W1_400_1 + 0.996078431372549 W1_401_1
   + 0.996078431372549 W1_402_1 + 0.996078431372549 W1_403_1
   + 0.8666666666666667 W1_404_1 + 0.8470588235294118 W1_405_1
   + 0.8470588235294118 W1_406_1 + 0.796078431372549 W1_407_1
   + 0.807843137254902 W1_408_1 + 0.996078431372549 W1_409_1
   + 0.996078431372549 W1_410_1 + 0.996078431372549 W1_411_1
   + 0.9294117647058824 W1_412_1 + 0.4509803921568628 W1_413_1
   + 0.0431372549019608 W1_414_1 + 0.3450980392156863 W1_427_1
   + 0.9882352941176471 W1_428_1 + 0.996078431372549 W1_429_1
   + 0.8588235294117647 W1_430_1 + 0.8431372549019608 W1_431_1
   + 0.8745098039215686 W1_432_1 + 0.996078431372549 W1_433_1
   + 0.996078431372549 W1_434_1 + 0.996078431372549 W1_435_1
   + 0.996078431372549 W1_436_1 + 0.996078431372549 W1_437_1
   + 0.7294117647058823 W1_438_1 + 0.2470588235294118 W1_439_1
   + 0.1019607843137255 W1_440_1 + 0.9686274509803922 W1_455_1 + W1_456_1
   + 0.5803921568627451 W1_457_1 + 0.0156862745098039 W1_458_1
   + 0.0392156862745098 W1_460_1 + 0.1843137254901961 W1_461_1
   + 0.1843137254901961 W1_462_1 + 0.3098039215686275 W1_463_1 + W1_464_1
   + 0.9803921568627451 W1_465_1 + 0.1882352941176471 W1_466_1
   + 0.5058823529411764 W1_483_1 + 0.5764705882352941 W1_484_1
   + 0.0156862745098039 W1_485_1 + 0.5803921568627451 W1_491_1
   + 0.996078431372549 W1_492_1 + 0.6823529411764706 W1_493_1
   + 0.0196078431372549 W1_518_1 + 0.8470588235294118 W1_519_1 + W1_520_1
   + 0.203921568627451 W1_521_1 + 0.3176470588235294 W1_546_1
   + 0.996078431372549 W1_547_1 + 0.8941176470588236 W1_548_1
   + 0.0509803921568627 W1_549_1 + 0.6470588235294118 W1_574_1
   + 0.996078431372549 W1_575_1 + 0.5843137254901961 W1_576_1
   + 0.8470588235294118 W1_602_1 + 0.996078431372549 W1_603_1
   + 0.1843137254901961 W1_604_1 + 0.8470588235294118 W1_630_1
   + 0.9411764705882353 W1_631_1 + 0.1176470588235294 W1_632_1
   + 0.8470588235294118 W1_658_1 + 0.7294117647058823 W1_659_1
   + 0.8470588235294118 W1_686_1 + 0.8431372549019608 W1_687_1
   - 20 sign_inner_6_1 <= 0
 sign_1_pkj_pos_7_0: W1_0_0 + 0.0980392156862745 W1_176_0
   + 0.1098039215686274 W1_177_0 + 0.0235294117647059 W1_178_0
   + 0.0745098039215686 W1_185_0 + 0.7176470588235294 W1_186_0
   + 0.6 W1_187_0 + 0.0627450980392157 W1_188_0
   + 0.1215686274509804 W1_203_0 + 0.8588235294117647 W1_204_0
   + 0.9058823529411765 W1_205_0 + 0.2705882352941176 W1_206_0
   + 0.1254901960784314 W1_213_0 + 0.996078431372549 W1_214_0
   + 0.996078431372549 W1_215_0 + 0.6392156862745098 W1_216_0
   + 0.3294117647058823 W1_231_0 + 0.996078431372549 W1_232_0 + W1_233_0
   + 0.4705882352941176 W1_234_0 + 0.1254901960784314 W1_241_0
   + 0.996078431372549 W1_242_0 + 0.996078431372549 W1_243_0
   + 0.6745098039215687 W1_244_0 + 0.4627450980392157 W1_259_0
   + 0.996078431372549 W1_260_0 + 0.996078431372549 W1_261_0
   + 0.1215686274509804 W1_262_0 + 0.0862745098039216 W1_269_0
   + 0.9058823529411765 W1_270_0 + 0.996078431372549 W1_271_0
   + 0.6235294117647059 W1_272_0 + 0.0745098039215686 W1_286_0
   + 0.8705882352941177 W1_287_0 + 0.996078431372549 W1_288_0
   + 0.8509803921568627 W1_289_0 + 0.0588235294117647 W1_290_0
   + 0.7137254901960784 W1_298_0 + 0.996078431372549 W1_299_0
   + 0.4 W1_300_0 + 0.1450980392156863 W1_314_0
   + 0.996078431372549 W1_315_0 + 0.996078431372549 W1_316_0
   + 0.592156862745098 W1_317_0 + 0.7137254901960784 W1_326_0
   + 0.996078431372549 W1_327_0 + 0.7333333333333333 W1_328_0
   + 0.5019607843137255 W1_342_0 + 0.996078431372549 W1_343_0
   + 0.996078431372549 W1_344_0 + 0.3058823529411765 W1_345_0
   + 0.7137254901960784 W1_354_0 + 0.996078431372549 W1_355_0
   + 0.8588235294117647 W1_356_0 + 0.0666666666666667 W1_357_0
   + 0.2862745098039216 W1_370_0 + 0.996078431372549 W1_371_0
   + 0.996078431372549 W1_372_0 + 0.7568627450980392 W1_373_0
   + 0.2980392156862745 W1_374_0 + 0.0862745098039216 W1_375_0
   + 0.0823529411764706 W1_381_0 + 0.9019607843137255 W1_382_0
   + 0.996078431372549 W1_383_0 + 0.996078431372549 W1_384_0
   + 0.1411764705882353 W1_385_0 + 0.0235294117647059 W1_398_0
   + 0.7686274509803922 W1_399_0 + 0.996078431372549 W1_400_0
   + 0.996078431372549 W1_401_0 + 0.996078431372549 W1_402_0
   + 0.8941176470588236 W1_403_0 + 0.8392156862745098 W1_404_0
   + 0.8392156862745098 W1_405_0 + 0.8392156862745098 W1_406_0
   + 0.8392156862745098 W1_407_0 + 0.8392156862745098 W1_408_0
   + 0.8588235294117647 W1_409_0 + 0.996078431372549 W1_410_0
   + 0.996078431372549 W1_411_0 + 0.996078431372549 W1_412_0
   + 0.1411764705882353 W1_413_0 + 0.1294117647058824 W1_427_0
   + 0.4274509803921568 W1_428_0 + 0.9372549019607843 W1_429_0
   + 0.996078431372549 W1_430_0 + 0.996078431372549 W1_431_0
   + 0.996078431372549 W1_432_0 + 0.996078431372549 W1_433_0
   + 0.996078431372549 W1_434_0 + 0.996078431372549 W1_435_0
   + 0.996078431372549 W1_436_0 + 0.996078431372549 W1_437_0
   + 0.996078431372549 W1_438_0 + 0.996078431372549 W1_439_0
   + 0.996078431372549 W1_440_0 + 0.1411764705882353 W1_441_0
   + 0.2588235294117647 W1_457_0 + 0.6078431372549019 W1_458_0
   + 0.6078431372549019 W1_459_0 + 0.6078431372549019 W1_460_0
   + 0.6078431372549019 W1_461_0 + 0.6078431372549019 W1_462_0
   + 0.6078431372549019 W1_463_0 + 0.6078431372549019 W1_464_0
   + 0.6549019607843137 W1_465_0 + 0.996078431372549 W1_466_0
   + 0.996078431372549 W1_467_0 + 0.996078431372549 W1_468_0
   + 0.1411764705882353 W1_469_0 + 0.00392156862745098 W1_493_0
   + 0.6509803921568628 W1_494_0 + 0.996078431372549 W1_495_0
   + 0.996078431372549 W1_496_0 + 0.207843137254902 W1_497_0
   + 0.3098039215686275 W1_522_0 + 0.996078431372549 W1_523_0
   + 0.996078431372549 W1_524_0 + 0.5490196078431373 W1_525_0
   + 0.0196078431372549 W1_550_0 + 0.9058823529411765 W1_551_0
   + 0.996078431372549 W1_552_0 + 0.5490196078431373 W1_553_0
   + 0.8980392156862745 W1_579_0 + 0.996078431372549 W1_580_0
   + 0.5490196078431373 W1_581_0 + 0.1529411764705882 W1_606_0
   + 0.9490196078431372 W1_607_0 + 0.996078431372549 W1_608_0
   + 0.5490196078431373 W1_609_0 + 0.3098039215686275 W1_634_0
   + 0.996078431372549 W1_635_0 + 0.996078431372549 W1_636_0
   + 0.5490196078431373 W1_637_0 + 0.3098039215686275 W1_662_0
   + 0.996078431372549 W1_663_0 + 0.996078431372549 W1_664_0
   + 0.5490196078431373 W1_665_0 + 0.2392156862745098 W1_690_0
   + 0.9764705882352941 W1_691_0 + 0.996078431372549 W1_692_0
   + 0.5490196078431373 W1_693_0 + 0.8980392156862745 W1_719_0
   + 0.7215686274509804 W1_720_0 + 0.1568627450980392 W1_721_0
   - 20 sign_inner_7_0 >= -19.999
 sign_0_pkj_neg_7_0: W1_0_0 + 0.0980392156862745 W1_176_0
   + 0.1098039215686274 W1_177_0 + 0.0235294117647059 W1_178_0
   + 0.0745098039215686 W1_185_0 + 0.7176470588235294 W1_186_0
   + 0.6 W1_187_0 + 0.0627450980392157 W1_188_0
   + 0.1215686274509804 W1_203_0 + 0.8588235294117647 W1_204_0
   + 0.9058823529411765 W1_205_0 + 0.2705882352941176 W1_206_0
   + 0.1254901960784314 W1_213_0 + 0.996078431372549 W1_214_0
   + 0.996078431372549 W1_215_0 + 0.6392156862745098 W1_216_0
   + 0.3294117647058823 W1_231_0 + 0.996078431372549 W1_232_0 + W1_233_0
   + 0.4705882352941176 W1_234_0 + 0.1254901960784314 W1_241_0
   + 0.996078431372549 W1_242_0 + 0.996078431372549 W1_243_0
   + 0.6745098039215687 W1_244_0 + 0.4627450980392157 W1_259_0
   + 0.996078431372549 W1_260_0 + 0.996078431372549 W1_261_0
   + 0.1215686274509804 W1_262_0 + 0.0862745098039216 W1_269_0
   + 0.9058823529411765 W1_270_0 + 0.996078431372549 W1_271_0
   + 0.6235294117647059 W1_272_0 + 0.0745098039215686 W1_286_0
   + 0.8705882352941177 W1_287_0 + 0.996078431372549 W1_288_0
   + 0.8509803921568627 W1_289_0 + 0.0588235294117647 W1_290_0
   + 0.7137254901960784 W1_298_0 + 0.996078431372549 W1_299_0
   + 0.4 W1_300_0 + 0.1450980392156863 W1_314_0
   + 0.996078431372549 W1_315_0 + 0.996078431372549 W1_316_0
   + 0.592156862745098 W1_317_0 + 0.7137254901960784 W1_326_0
   + 0.996078431372549 W1_327_0 + 0.7333333333333333 W1_328_0
   + 0.5019607843137255 W1_342_0 + 0.996078431372549 W1_343_0
   + 0.996078431372549 W1_344_0 + 0.3058823529411765 W1_345_0
   + 0.7137254901960784 W1_354_0 + 0.996078431372549 W1_355_0
   + 0.8588235294117647 W1_356_0 + 0.0666666666666667 W1_357_0
   + 0.2862745098039216 W1_370_0 + 0.996078431372549 W1_371_0
   + 0.996078431372549 W1_372_0 + 0.7568627450980392 W1_373_0
   + 0.2980392156862745 W1_374_0 + 0.0862745098039216 W1_375_0
   + 0.0823529411764706 W1_381_0 + 0.9019607843137255 W1_382_0
   + 0.996078431372549 W1_383_0 + 0.996078431372549 W1_384_0
   + 0.1411764705882353 W1_385_0 + 0.0235294117647059 W1_398_0
   + 0.7686274509803922 W1_399_0 + 0.996078431372549 W1_400_0
   + 0.996078431372549 W1_401_0 + 0.996078431372549 W1_402_0
   + 0.8941176470588236 W1_403_0 + 0.8392156862745098 W1_404_0
   + 0.8392156862745098 W1_405_0 + 0.8392156862745098 W1_406_0
   + 0.8392156862745098 W1_407_0 + 0.8392156862745098 W1_408_0
   + 0.8588235294117647 W1_409_0 + 0.996078431372549 W1_410_0
   + 0.996078431372549 W1_411_0 + 0.996078431372549 W1_412_0
   + 0.1411764705882353 W1_413_0 + 0.1294117647058824 W1_427_0
   + 0.4274509803921568 W1_428_0 + 0.9372549019607843 W1_429_0
   + 0.996078431372549 W1_430_0 + 0.996078431372549 W1_431_0
   + 0.996078431372549 W1_432_0 + 0.996078431372549 W1_433_0
   + 0.996078431372549 W1_434_0 + 0.996078431372549 W1_435_0
   + 0.996078431372549 W1_436_0 + 0.996078431372549 W1_437_0
   + 0.996078431372549 W1_438_0 + 0.996078431372549 W1_439_0
   + 0.996078431372549 W1_440_0 + 0.1411764705882353 W1_441_0
   + 0.2588235294117647 W1_457_0 + 0.6078431372549019 W1_458_0
   + 0.6078431372549019 W1_459_0 + 0.6078431372549019 W1_460_0
   + 0.6078431372549019 W1_461_0 + 0.6078431372549019 W1_462_0
   + 0.6078431372549019 W1_463_0 + 0.6078431372549019 W1_464_0
   + 0.6549019607843137 W1_465_0 + 0.996078431372549 W1_466_0
   + 0.996078431372549 W1_467_0 + 0.996078431372549 W1_468_0
   + 0.1411764705882353 W1_469_0 + 0.00392156862745098 W1_493_0
   + 0.6509803921568628 W1_494_0 + 0.996078431372549 W1_495_0
   + 0.996078431372549 W1_496_0 + 0.207843137254902 W1_497_0
   + 0.3098039215686275 W1_522_0 + 0.996078431372549 W1_523_0
   + 0.996078431372549 W1_524_0 + 0.5490196078431373 W1_525_0
   + 0.0196078431372549 W1_550_0 + 0.9058823529411765 W1_551_0
   + 0.996078431372549 W1_552_0 + 0.5490196078431373 W1_553_0
   + 0.8980392156862745 W1_579_0 + 0.996078431372549 W1_580_0
   + 0.5490196078431373 W1_581_0 + 0.1529411764705882 W1_606_0
   + 0.9490196078431372 W1_607_0 + 0.996078431372549 W1_608_0
   + 0.5490196078431373 W1_609_0 + 0.3098039215686275 W1_634_0
   + 0.996078431372549 W1_635_0 + 0.996078431372549 W1_636_0
   + 0.5490196078431373 W1_637_0 + 0.3098039215686275 W1_662_0
   + 0.996078431372549 W1_663_0 + 0.996078431372549 W1_664_0
   + 0.5490196078431373 W1_665_0 + 0.2392156862745098 W1_690_0
   + 0.9764705882352941 W1_691_0 + 0.996078431372549 W1_692_0
   + 0.5490196078431373 W1_693_0 + 0.8980392156862745 W1_719_0
   + 0.7215686274509804 W1_720_0 + 0.1568627450980392 W1_721_0
   - 20 sign_inner_7_0 <= 0
 sign_1_pkj_pos_7_1: W1_0_1 + 0.0980392156862745 W1_176_1
   + 0.1098039215686274 W1_177_1 + 0.0235294117647059 W1_178_1
   + 0.0745098039215686 W1_185_1 + 0.7176470588235294 W1_186_1
   + 0.6 W1_187_1 + 0.0627450980392157 W1_188_1
   + 0.1215686274509804 W1_203_1 + 0.8588235294117647 W1_204_1
   + 0.9058823529411765 W1_205_1 + 0.2705882352941176 W1_206_1
   + 0.1254901960784314 W1_213_1 + 0.996078431372549 W1_214_1
   + 0.996078431372549 W1_215_1 + 0.6392156862745098 W1_216_1
   + 0.3294117647058823 W1_231_1 + 0.996078431372549 W1_232_1 + W1_233_1
   + 0.4705882352941176 W1_234_1 + 0.1254901960784314 W1_241_1
   + 0.996078431372549 W1_242_1 + 0.996078431372549 W1_243_1
   + 0.6745098039215687 W1_244_1 + 0.4627450980392157 W1_259_1
   + 0.996078431372549 W1_260_1 + 0.996078431372549 W1_261_1
   + 0.1215686274509804 W1_262_1 + 0.0862745098039216 W1_269_1
   + 0.9058823529411765 W1_270_1 + 0.996078431372549 W1_271_1
   + 0.6235294117647059 W1_272_1 + 0.0745098039215686 W1_286_1
   + 0.8705882352941177 W1_287_1 + 0.996078431372549 W1_288_1
   + 0.8509803921568627 W1_289_1 + 0.0588235294117647 W1_290_1
   + 0.7137254901960784 W1_298_1 + 0.996078431372549 W1_299_1
   + 0.4 W1_300_1 + 0.1450980392156863 W1_314_1
   + 0.996078431372549 W1_315_1 + 0.996078431372549 W1_316_1
   + 0.592156862745098 W1_317_1 + 0.7137254901960784 W1_326_1
   + 0.996078431372549 W1_327_1 + 0.7333333333333333 W1_328_1
   + 0.5019607843137255 W1_342_1 + 0.996078431372549 W1_343_1
   + 0.996078431372549 W1_344_1 + 0.3058823529411765 W1_345_1
   + 0.7137254901960784 W1_354_1 + 0.996078431372549 W1_355_1
   + 0.8588235294117647 W1_356_1 + 0.0666666666666667 W1_357_1
   + 0.2862745098039216 W1_370_1 + 0.996078431372549 W1_371_1
   + 0.996078431372549 W1_372_1 + 0.7568627450980392 W1_373_1
   + 0.2980392156862745 W1_374_1 + 0.0862745098039216 W1_375_1
   + 0.0823529411764706 W1_381_1 + 0.9019607843137255 W1_382_1
   + 0.996078431372549 W1_383_1 + 0.996078431372549 W1_384_1
   + 0.1411764705882353 W1_385_1 + 0.0235294117647059 W1_398_1
   + 0.7686274509803922 W1_399_1 + 0.996078431372549 W1_400_1
   + 0.996078431372549 W1_401_1 + 0.996078431372549 W1_402_1
   + 0.8941176470588236 W1_403_1 + 0.8392156862745098 W1_404_1
   + 0.8392156862745098 W1_405_1 + 0.8392156862745098 W1_406_1
   + 0.8392156862745098 W1_407_1 + 0.8392156862745098 W1_408_1
   + 0.8588235294117647 W1_409_1 + 0.996078431372549 W1_410_1
   + 0.996078431372549 W1_411_1 + 0.996078431372549 W1_412_1
   + 0.1411764705882353 W1_413_1 + 0.1294117647058824 W1_427_1
   + 0.4274509803921568 W1_428_1 + 0.9372549019607843 W1_429_1
   + 0.996078431372549 W1_430_1 + 0.996078431372549 W1_431_1
   + 0.996078431372549 W1_432_1 + 0.996078431372549 W1_433_1
   + 0.996078431372549 W1_434_1 + 0.996078431372549 W1_435_1
   + 0.996078431372549 W1_436_1 + 0.996078431372549 W1_437_1
   + 0.996078431372549 W1_438_1 + 0.996078431372549 W1_439_1
   + 0.996078431372549 W1_440_1 + 0.1411764705882353 W1_441_1
   + 0.2588235294117647 W1_457_1 + 0.6078431372549019 W1_458_1
   + 0.6078431372549019 W1_459_1 + 0.6078431372549019 W1_460_1
   + 0.6078431372549019 W1_461_1 + 0.6078431372549019 W1_462_1
   + 0.6078431372549019 W1_463_1 + 0.6078431372549019 W1_464_1
   + 0.6549019607843137 W1_465_1 + 0.996078431372549 W1_466_1
   + 0.996078431372549 W1_467_1 + 0.996078431372549 W1_468_1
   + 0.1411764705882353 W1_469_1 + 0.00392156862745098 W1_493_1
   + 0.6509803921568628 W1_494_1 + 0.996078431372549 W1_495_1
   + 0.996078431372549 W1_496_1 + 0.207843137254902 W1_497_1
   + 0.3098039215686275 W1_522_1 + 0.996078431372549 W1_523_1
   + 0.996078431372549 W1_524_1 + 0.5490196078431373 W1_525_1
   + 0.0196078431372549 W1_550_1 + 0.9058823529411765 W1_551_1
   + 0.996078431372549 W1_552_1 + 0.5490196078431373 W1_553_1
   + 0.8980392156862745 W1_579_1 + 0.996078431372549 W1_580_1
   + 0.5490196078431373 W1_581_1 + 0.1529411764705882 W1_606_1
   + 0.9490196078431372 W1_607_1 + 0.996078431372549 W1_608_1
   + 0.5490196078431373 W1_609_1 + 0.3098039215686275 W1_634_1
   + 0.996078431372549 W1_635_1 + 0.996078431372549 W1_636_1
   + 0.5490196078431373 W1_637_1 + 0.3098039215686275 W1_662_1
   + 0.996078431372549 W1_663_1 + 0.996078431372549 W1_664_1
   + 0.5490196078431373 W1_665_1 + 0.2392156862745098 W1_690_1
   + 0.9764705882352941 W1_691_1 + 0.996078431372549 W1_692_1
   + 0.5490196078431373 W1_693_1 + 0.8980392156862745 W1_719_1
   + 0.7215686274509804 W1_720_1 + 0.1568627450980392 W1_721_1
   - 20 sign_inner_7_1 >= -19.999
 sign_0_pkj_neg_7_1: W1_0_1 + 0.0980392156862745 W1_176_1
   + 0.1098039215686274 W1_177_1 + 0.0235294117647059 W1_178_1
   + 0.0745098039215686 W1_185_1 + 0.7176470588235294 W1_186_1
   + 0.6 W1_187_1 + 0.0627450980392157 W1_188_1
   + 0.1215686274509804 W1_203_1 + 0.8588235294117647 W1_204_1
   + 0.9058823529411765 W1_205_1 + 0.2705882352941176 W1_206_1
   + 0.1254901960784314 W1_213_1 + 0.996078431372549 W1_214_1
   + 0.996078431372549 W1_215_1 + 0.6392156862745098 W1_216_1
   + 0.3294117647058823 W1_231_1 + 0.996078431372549 W1_232_1 + W1_233_1
   + 0.4705882352941176 W1_234_1 + 0.1254901960784314 W1_241_1
   + 0.996078431372549 W1_242_1 + 0.996078431372549 W1_243_1
   + 0.6745098039215687 W1_244_1 + 0.4627450980392157 W1_259_1
   + 0.996078431372549 W1_260_1 + 0.996078431372549 W1_261_1
   + 0.1215686274509804 W1_262_1 + 0.0862745098039216 W1_269_1
   + 0.9058823529411765 W1_270_1 + 0.996078431372549 W1_271_1
   + 0.6235294117647059 W1_272_1 + 0.0745098039215686 W1_286_1
   + 0.8705882352941177 W1_287_1 + 0.996078431372549 W1_288_1
   + 0.8509803921568627 W1_289_1 + 0.0588235294117647 W1_290_1
   + 0.7137254901960784 W1_298_1 + 0.996078431372549 W1_299_1
   + 0.4 W1_300_1 + 0.1450980392156863 W1_314_1
   + 0.996078431372549 W1_315_1 + 0.996078431372549 W1_316_1
   + 0.592156862745098 W1_317_1 + 0.7137254901960784 W1_326_1
   + 0.996078431372549 W1_327_1 + 0.7333333333333333 W1_328_1
   + 0.5019607843137255 W1_342_1 + 0.996078431372549 W1_343_1
   + 0.996078431372549 W1_344_1 + 0.3058823529411765 W1_345_1
   + 0.7137254901960784 W1_354_1 + 0.996078431372549 W1_355_1
   + 0.8588235294117647 W1_356_1 + 0.0666666666666667 W1_357_1
   + 0.2862745098039216 W1_370_1 + 0.996078431372549 W1_371_1
   + 0.996078431372549 W1_372_1 + 0.7568627450980392 W1_373_1
   + 0.2980392156862745 W1_374_1 + 0.0862745098039216 W1_375_1
   + 0.0823529411764706 W1_381_1 + 0.9019607843137255 W1_382_1
   + 0.996078431372549 W1_383_1 + 0.996078431372549 W1_384_1
   + 0.1411764705882353 W1_385_1 + 0.0235294117647059 W1_398_1
   + 0.7686274509803922 W1_399_1 + 0.996078431372549 W1_400_1
   + 0.996078431372549 W1_401_1 + 0.996078431372549 W1_402_1
   + 0.8941176470588236 W1_403_1 + 0.8392156862745098 W1_404_1
   + 0.8392156862745098 W1_405_1 + 0.8392156862745098 W1_406_1
   + 0.8392156862745098 W1_407_1 + 0.8392156862745098 W1_408_1
   + 0.8588235294117647 W1_409_1 + 0.996078431372549 W1_410_1
   + 0.996078431372549 W1_411_1 + 0.996078431372549 W1_412_1
   + 0.1411764705882353 W1_413_1 + 0.1294117647058824 W1_427_1
   + 0.4274509803921568 W1_428_1 + 0.9372549019607843 W1_429_1
   + 0.996078431372549 W1_430_1 + 0.996078431372549 W1_431_1
   + 0.996078431372549 W1_432_1 + 0.996078431372549 W1_433_1
   + 0.996078431372549 W1_434_1 + 0.996078431372549 W1_435_1
   + 0.996078431372549 W1_436_1 + 0.996078431372549 W1_437_1
   + 0.996078431372549 W1_438_1 + 0.996078431372549 W1_439_1
   + 0.996078431372549 W1_440_1 + 0.1411764705882353 W1_441_1
   + 0.2588235294117647 W1_457_1 + 0.6078431372549019 W1_458_1
   + 0.6078431372549019 W1_459_1 + 0.6078431372549019 W1_460_1
   + 0.6078431372549019 W1_461_1 + 0.6078431372549019 W1_462_1
   + 0.6078431372549019 W1_463_1 + 0.6078431372549019 W1_464_1
   + 0.6549019607843137 W1_465_1 + 0.996078431372549 W1_466_1
   + 0.996078431372549 W1_467_1 + 0.996078431372549 W1_468_1
   + 0.1411764705882353 W1_469_1 + 0.00392156862745098 W1_493_1
   + 0.6509803921568628 W1_494_1 + 0.996078431372549 W1_495_1
   + 0.996078431372549 W1_496_1 + 0.207843137254902 W1_497_1
   + 0.3098039215686275 W1_522_1 + 0.996078431372549 W1_523_1
   + 0.996078431372549 W1_524_1 + 0.5490196078431373 W1_525_1
   + 0.0196078431372549 W1_550_1 + 0.9058823529411765 W1_551_1
   + 0.996078431372549 W1_552_1 + 0.5490196078431373 W1_553_1
   + 0.8980392156862745 W1_579_1 + 0.996078431372549 W1_580_1
   + 0.5490196078431373 W1_581_1 + 0.1529411764705882 W1_606_1
   + 0.9490196078431372 W1_607_1 + 0.996078431372549 W1_608_1
   + 0.5490196078431373 W1_609_1 + 0.3098039215686275 W1_634_1
   + 0.996078431372549 W1_635_1 + 0.996078431372549 W1_636_1
   + 0.5490196078431373 W1_637_1 + 0.3098039215686275 W1_662_1
   + 0.996078431372549 W1_663_1 + 0.996078431372549 W1_664_1
   + 0.5490196078431373 W1_665_1 + 0.2392156862745098 W1_690_1
   + 0.9764705882352941 W1_691_1 + 0.996078431372549 W1_692_1
   + 0.5490196078431373 W1_693_1 + 0.8980392156862745 W1_719_1
   + 0.7215686274509804 W1_720_1 + 0.1568627450980392 W1_721_1
   - 20 sign_inner_7_1 <= 0
 sign_1_pkj_pos_8_0: W1_0_0 + 0.0784313725490196 W1_123_0
   + 0.4745098039215686 W1_124_0 + 0.7725490196078432 W1_125_0
   + 0.9921568627450981 W1_126_0 + W1_127_0 + 0.9921568627450981 W1_128_0
   + 0.3529411764705883 W1_129_0 + 0.2 W1_150_0
   + 0.9490196078431372 W1_151_0 + 0.9882352941176471 W1_152_0
   + 0.9882352941176471 W1_153_0 + 0.9882352941176471 W1_154_0
   + 0.9921568627450981 W1_155_0 + 0.9882352941176471 W1_156_0
   + 0.9686274509803922 W1_157_0 + 0.1450980392156863 W1_158_0
   + 0.0235294117647059 W1_178_0 + 0.4627450980392157 W1_179_0
   + 0.6196078431372549 W1_180_0 + 0.3215686274509804 W1_181_0
   + 0.3803921568627451 W1_182_0 + 0.3529411764705883 W1_183_0
   + 0.7764705882352941 W1_184_0 + 0.9882352941176471 W1_185_0
   + 0.6196078431372549 W1_186_0 + 0.4196078431372549 W1_212_0
   + 0.9882352941176471 W1_213_0 + 0.6745098039215687 W1_214_0
   + 0.8313725490196079 W1_240_0 + 0.9882352941176471 W1_241_0
   + 0.6745098039215687 W1_242_0 + 0.1019607843137255 W1_267_0
   + 0.9490196078431372 W1_268_0 + 0.9882352941176471 W1_269_0
   + 0.2901960784313726 W1_270_0 + 0.8274509803921568 W1_295_0
   + 0.9882352941176471 W1_296_0 + 0.9882352941176471 W1_297_0
   + 0.1529411764705882 W1_298_0 + 0.9921568627450981 W1_323_0
   + 0.9882352941176471 W1_324_0 + 0.9490196078431372 W1_325_0
   + 0.1372549019607843 W1_326_0 + 0.3058823529411765 W1_350_0
   + 0.9921568627450981 W1_351_0 + 0.9882352941176471 W1_352_0
   + 0.3215686274509804 W1_353_0 + 0.5215686274509804 W1_378_0
   + 0.9921568627450981 W1_379_0 + 0.9882352941176471 W1_380_0
   + 0.1019607843137255 W1_381_0 + 0.2784313725490196 W1_406_0 + W1_407_0
   + 0.9921568627450981 W1_408_0 + 0.3529411764705883 W1_409_0
   + 0.9921568627450981 W1_435_0 + 0.9882352941176471 W1_436_0
   + 0.6196078431372549 W1_437_0 + 0.3529411764705883 W1_463_0
   + 0.9686274509803922 W1_464_0 + 0.9490196078431372 W1_465_0
   + 0.1372549019607843 W1_466_0 + 0.5019607843137255 W1_492_0
   + 0.9882352941176471 W1_493_0 + 0.8588235294117647 W1_494_0
   + 0.3411764705882353 W1_495_0 + 0.0901960784313725 W1_520_0
   + 0.9098039215686274 W1_521_0 + 0.9882352941176471 W1_522_0
   + 0.7254901960784313 W1_523_0 + 0.4235294117647059 W1_548_0
   + 0.9607843137254902 W1_549_0 + 0.9882352941176471 W1_550_0
   + 0.7254901960784313 W1_551_0 + 0.0352941176470588 W1_570_0
   + 0.1333333333333333 W1_571_0 + 0.0862745098039216 W1_574_0
   + 0.6823529411764706 W1_575_0 + 0.9725490196078431 W1_576_0
   + 0.9882352941176471 W1_577_0 + 0.9372549019607843 W1_578_0
   + 0.611764705882353 W1_579_0 + 0.5411764705882353 W1_598_0
   + 0.9294117647058824 W1_599_0 + 0.3529411764705883 W1_600_0
   + 0.6274509803921569 W1_601_0 + 0.8156862745098039 W1_602_0
   + 0.9921568627450981 W1_603_0 + 0.9882352941176471 W1_604_0
   + 0.9490196078431372 W1_605_0 + 0.3294117647058823 W1_606_0
   + 0.7294117647058823 W1_626_0 + 0.9882352941176471 W1_627_0
   + 0.9882352941176471 W1_628_0 + 0.9882352941176471 W1_629_0
   + 0.9882352941176471 W1_630_0 + 0.9921568627450981 W1_631_0
   + 0.7176470588235294 W1_632_0 + 0.2627450980392157 W1_633_0
   + 0.3490196078431372 W1_654_0 + 0.8235294117647058 W1_655_0
   + 0.9882352941176471 W1_656_0 + 0.9882352941176471 W1_657_0
   + 0.9882352941176471 W1_658_0 + 0.4705882352941176 W1_659_0
   + 0.0235294117647059 W1_660_0 - 20 sign_inner_8_0 >= -19.999
 sign_0_pkj_neg_8_0: W1_0_0 + 0.0784313725490196 W1_123_0
   + 0.4745098039215686 W1_124_0 + 0.7725490196078432 W1_125_0
   + 0.9921568627450981 W1_126_0 + W1_127_0 + 0.9921568627450981 W1_128_0
   + 0.3529411764705883 W1_129_0 + 0.2 W1_150_0
   + 0.9490196078431372 W1_151_0 + 0.9882352941176471 W1_152_0
   + 0.9882352941176471 W1_153_0 + 0.9882352941176471 W1_154_0
   + 0.9921568627450981 W1_155_0 + 0.9882352941176471 W1_156_0
   + 0.9686274509803922 W1_157_0 + 0.1450980392156863 W1_158_0
   + 0.0235294117647059 W1_178_0 + 0.4627450980392157 W1_179_0
   + 0.6196078431372549 W1_180_0 + 0.3215686274509804 W1_181_0
   + 0.3803921568627451 W1_182_0 + 0.3529411764705883 W1_183_0
   + 0.7764705882352941 W1_184_0 + 0.9882352941176471 W1_185_0
   + 0.6196078431372549 W1_186_0 + 0.4196078431372549 W1_212_0
   + 0.9882352941176471 W1_213_0 + 0.6745098039215687 W1_214_0
   + 0.8313725490196079 W1_240_0 + 0.9882352941176471 W1_241_0
   + 0.6745098039215687 W1_242_0 + 0.1019607843137255 W1_267_0
   + 0.9490196078431372 W1_268_0 + 0.9882352941176471 W1_269_0
   + 0.2901960784313726 W1_270_0 + 0.8274509803921568 W1_295_0
   + 0.9882352941176471 W1_296_0 + 0.9882352941176471 W1_297_0
   + 0.1529411764705882 W1_298_0 + 0.9921568627450981 W1_323_0
   + 0.9882352941176471 W1_324_0 + 0.9490196078431372 W1_325_0
   + 0.1372549019607843 W1_326_0 + 0.3058823529411765 W1_350_0
   + 0.9921568627450981 W1_351_0 + 0.9882352941176471 W1_352_0
   + 0.3215686274509804 W1_353_0 + 0.5215686274509804 W1_378_0
   + 0.9921568627450981 W1_379_0 + 0.9882352941176471 W1_380_0
   + 0.1019607843137255 W1_381_0 + 0.2784313725490196 W1_406_0 + W1_407_0
   + 0.9921568627450981 W1_408_0 + 0.3529411764705883 W1_409_0
   + 0.9921568627450981 W1_435_0 + 0.9882352941176471 W1_436_0
   + 0.6196078431372549 W1_437_0 + 0.3529411764705883 W1_463_0
   + 0.9686274509803922 W1_464_0 + 0.9490196078431372 W1_465_0
   + 0.1372549019607843 W1_466_0 + 0.5019607843137255 W1_492_0
   + 0.9882352941176471 W1_493_0 + 0.8588235294117647 W1_494_0
   + 0.3411764705882353 W1_495_0 + 0.0901960784313725 W1_520_0
   + 0.9098039215686274 W1_521_0 + 0.9882352941176471 W1_522_0
   + 0.7254901960784313 W1_523_0 + 0.4235294117647059 W1_548_0
   + 0.9607843137254902 W1_549_0 + 0.9882352941176471 W1_550_0
   + 0.7254901960784313 W1_551_0 + 0.0352941176470588 W1_570_0
   + 0.1333333333333333 W1_571_0 + 0.0862745098039216 W1_574_0
   + 0.6823529411764706 W1_575_0 + 0.9725490196078431 W1_576_0
   + 0.9882352941176471 W1_577_0 + 0.9372549019607843 W1_578_0
   + 0.611764705882353 W1_579_0 + 0.5411764705882353 W1_598_0
   + 0.9294117647058824 W1_599_0 + 0.3529411764705883 W1_600_0
   + 0.6274509803921569 W1_601_0 + 0.8156862745098039 W1_602_0
   + 0.9921568627450981 W1_603_0 + 0.9882352941176471 W1_604_0
   + 0.9490196078431372 W1_605_0 + 0.3294117647058823 W1_606_0
   + 0.7294117647058823 W1_626_0 + 0.9882352941176471 W1_627_0
   + 0.9882352941176471 W1_628_0 + 0.9882352941176471 W1_629_0
   + 0.9882352941176471 W1_630_0 + 0.9921568627450981 W1_631_0
   + 0.7176470588235294 W1_632_0 + 0.2627450980392157 W1_633_0
   + 0.3490196078431372 W1_654_0 + 0.8235294117647058 W1_655_0
   + 0.9882352941176471 W1_656_0 + 0.9882352941176471 W1_657_0
   + 0.9882352941176471 W1_658_0 + 0.4705882352941176 W1_659_0
   + 0.0235294117647059 W1_660_0 - 20 sign_inner_8_0 <= 0
 sign_1_pkj_pos_8_1: W1_0_1 + 0.0784313725490196 W1_123_1
   + 0.4745098039215686 W1_124_1 + 0.7725490196078432 W1_125_1
   + 0.9921568627450981 W1_126_1 + W1_127_1 + 0.9921568627450981 W1_128_1
   + 0.3529411764705883 W1_129_1 + 0.2 W1_150_1
   + 0.9490196078431372 W1_151_1 + 0.9882352941176471 W1_152_1
   + 0.9882352941176471 W1_153_1 + 0.9882352941176471 W1_154_1
   + 0.9921568627450981 W1_155_1 + 0.9882352941176471 W1_156_1
   + 0.9686274509803922 W1_157_1 + 0.1450980392156863 W1_158_1
   + 0.0235294117647059 W1_178_1 + 0.4627450980392157 W1_179_1
   + 0.6196078431372549 W1_180_1 + 0.3215686274509804 W1_181_1
   + 0.3803921568627451 W1_182_1 + 0.3529411764705883 W1_183_1
   + 0.7764705882352941 W1_184_1 + 0.9882352941176471 W1_185_1
   + 0.6196078431372549 W1_186_1 + 0.4196078431372549 W1_212_1
   + 0.9882352941176471 W1_213_1 + 0.6745098039215687 W1_214_1
   + 0.8313725490196079 W1_240_1 + 0.9882352941176471 W1_241_1
   + 0.6745098039215687 W1_242_1 + 0.1019607843137255 W1_267_1
   + 0.9490196078431372 W1_268_1 + 0.9882352941176471 W1_269_1
   + 0.2901960784313726 W1_270_1 + 0.8274509803921568 W1_295_1
   + 0.9882352941176471 W1_296_1 + 0.9882352941176471 W1_297_1
   + 0.1529411764705882 W1_298_1 + 0.9921568627450981 W1_323_1
   + 0.9882352941176471 W1_324_1 + 0.9490196078431372 W1_325_1
   + 0.1372549019607843 W1_326_1 + 0.3058823529411765 W1_350_1
   + 0.9921568627450981 W1_351_1 + 0.9882352941176471 W1_352_1
   + 0.3215686274509804 W1_353_1 + 0.5215686274509804 W1_378_1
   + 0.9921568627450981 W1_379_1 + 0.9882352941176471 W1_380_1
   + 0.1019607843137255 W1_381_1 + 0.2784313725490196 W1_406_1 + W1_407_1
   + 0.9921568627450981 W1_408_1 + 0.3529411764705883 W1_409_1
   + 0.9921568627450981 W1_435_1 + 0.9882352941176471 W1_436_1
   + 0.6196078431372549 W1_437_1 + 0.3529411764705883 W1_463_1
   + 0.9686274509803922 W1_464_1 + 0.9490196078431372 W1_465_1
   + 0.1372549019607843 W1_466_1 + 0.5019607843137255 W1_492_1
   + 0.9882352941176471 W1_493_1 + 0.8588235294117647 W1_494_1
   + 0.3411764705882353 W1_495_1 + 0.0901960784313725 W1_520_1
   + 0.9098039215686274 W1_521_1 + 0.9882352941176471 W1_522_1
   + 0.7254901960784313 W1_523_1 + 0.4235294117647059 W1_548_1
   + 0.9607843137254902 W1_549_1 + 0.9882352941176471 W1_550_1
   + 0.7254901960784313 W1_551_1 + 0.0352941176470588 W1_570_1
   + 0.1333333333333333 W1_571_1 + 0.0862745098039216 W1_574_1
   + 0.6823529411764706 W1_575_1 + 0.9725490196078431 W1_576_1
   + 0.9882352941176471 W1_577_1 + 0.9372549019607843 W1_578_1
   + 0.611764705882353 W1_579_1 + 0.5411764705882353 W1_598_1
   + 0.9294117647058824 W1_599_1 + 0.3529411764705883 W1_600_1
   + 0.6274509803921569 W1_601_1 + 0.8156862745098039 W1_602_1
   + 0.9921568627450981 W1_603_1 + 0.9882352941176471 W1_604_1
   + 0.9490196078431372 W1_605_1 + 0.3294117647058823 W1_606_1
   + 0.7294117647058823 W1_626_1 + 0.9882352941176471 W1_627_1
   + 0.9882352941176471 W1_628_1 + 0.9882352941176471 W1_629_1
   + 0.9882352941176471 W1_630_1 + 0.9921568627450981 W1_631_1
   + 0.7176470588235294 W1_632_1 + 0.2627450980392157 W1_633_1
   + 0.3490196078431372 W1_654_1 + 0.8235294117647058 W1_655_1
   + 0.9882352941176471 W1_656_1 + 0.9882352941176471 W1_657_1
   + 0.9882352941176471 W1_658_1 + 0.4705882352941176 W1_659_1
   + 0.0235294117647059 W1_660_1 - 20 sign_inner_8_1 >= -19.999
 sign_0_pkj_neg_8_1: W1_0_1 + 0.0784313725490196 W1_123_1
   + 0.4745098039215686 W1_124_1 + 0.7725490196078432 W1_125_1
   + 0.9921568627450981 W1_126_1 + W1_127_1 + 0.9921568627450981 W1_128_1
   + 0.3529411764705883 W1_129_1 + 0.2 W1_150_1
   + 0.9490196078431372 W1_151_1 + 0.9882352941176471 W1_152_1
   + 0.9882352941176471 W1_153_1 + 0.9882352941176471 W1_154_1
   + 0.9921568627450981 W1_155_1 + 0.9882352941176471 W1_156_1
   + 0.9686274509803922 W1_157_1 + 0.1450980392156863 W1_158_1
   + 0.0235294117647059 W1_178_1 + 0.4627450980392157 W1_179_1
   + 0.6196078431372549 W1_180_1 + 0.3215686274509804 W1_181_1
   + 0.3803921568627451 W1_182_1 + 0.3529411764705883 W1_183_1
   + 0.7764705882352941 W1_184_1 + 0.9882352941176471 W1_185_1
   + 0.6196078431372549 W1_186_1 + 0.4196078431372549 W1_212_1
   + 0.9882352941176471 W1_213_1 + 0.6745098039215687 W1_214_1
   + 0.8313725490196079 W1_240_1 + 0.9882352941176471 W1_241_1
   + 0.6745098039215687 W1_242_1 + 0.1019607843137255 W1_267_1
   + 0.9490196078431372 W1_268_1 + 0.9882352941176471 W1_269_1
   + 0.2901960784313726 W1_270_1 + 0.8274509803921568 W1_295_1
   + 0.9882352941176471 W1_296_1 + 0.9882352941176471 W1_297_1
   + 0.1529411764705882 W1_298_1 + 0.9921568627450981 W1_323_1
   + 0.9882352941176471 W1_324_1 + 0.9490196078431372 W1_325_1
   + 0.1372549019607843 W1_326_1 + 0.3058823529411765 W1_350_1
   + 0.9921568627450981 W1_351_1 + 0.9882352941176471 W1_352_1
   + 0.3215686274509804 W1_353_1 + 0.5215686274509804 W1_378_1
   + 0.9921568627450981 W1_379_1 + 0.9882352941176471 W1_380_1
   + 0.1019607843137255 W1_381_1 + 0.2784313725490196 W1_406_1 + W1_407_1
   + 0.9921568627450981 W1_408_1 + 0.3529411764705883 W1_409_1
   + 0.9921568627450981 W1_435_1 + 0.9882352941176471 W1_436_1
   + 0.6196078431372549 W1_437_1 + 0.3529411764705883 W1_463_1
   + 0.9686274509803922 W1_464_1 + 0.9490196078431372 W1_465_1
   + 0.1372549019607843 W1_466_1 + 0.5019607843137255 W1_492_1
   + 0.9882352941176471 W1_493_1 + 0.8588235294117647 W1_494_1
   + 0.3411764705882353 W1_495_1 + 0.0901960784313725 W1_520_1
   + 0.9098039215686274 W1_521_1 + 0.9882352941176471 W1_522_1
   + 0.7254901960784313 W1_523_1 + 0.4235294117647059 W1_548_1
   + 0.9607843137254902 W1_549_1 + 0.9882352941176471 W1_550_1
   + 0.7254901960784313 W1_551_1 + 0.0352941176470588 W1_570_1
   + 0.1333333333333333 W1_571_1 + 0.0862745098039216 W1_574_1
   + 0.6823529411764706 W1_575_1 + 0.9725490196078431 W1_576_1
   + 0.9882352941176471 W1_577_1 + 0.9372549019607843 W1_578_1
   + 0.611764705882353 W1_579_1 + 0.5411764705882353 W1_598_1
   + 0.9294117647058824 W1_599_1 + 0.3529411764705883 W1_600_1
   + 0.6274509803921569 W1_601_1 + 0.8156862745098039 W1_602_1
   + 0.9921568627450981 W1_603_1 + 0.9882352941176471 W1_604_1
   + 0.9490196078431372 W1_605_1 + 0.3294117647058823 W1_606_1
   + 0.7294117647058823 W1_626_1 + 0.9882352941176471 W1_627_1
   + 0.9882352941176471 W1_628_1 + 0.9882352941176471 W1_629_1
   + 0.9882352941176471 W1_630_1 + 0.9921568627450981 W1_631_1
   + 0.7176470588235294 W1_632_1 + 0.2627450980392157 W1_633_1
   + 0.3490196078431372 W1_654_1 + 0.8235294117647058 W1_655_1
   + 0.9882352941176471 W1_656_1 + 0.9882352941176471 W1_657_1
   + 0.9882352941176471 W1_658_1 + 0.4705882352941176 W1_659_1
   + 0.0235294117647059 W1_660_1 - 20 sign_inner_8_1 <= 0
 sign_1_pkj_pos_9_0: W1_0_0 + 0.8627450980392157 W1_147_0
   + 0.7019607843137254 W1_148_0 + 0.0235294117647059 W1_149_0
   + 0.0352941176470588 W1_158_0 + 0.3019607843137255 W1_159_0
   + 0.1098039215686274 W1_175_0 + 0.9686274509803922 W1_176_0
   + 0.0666666666666667 W1_177_0 + 0.1058823529411765 W1_186_0
   + 0.792156862745098 W1_187_0 + 0.9490196078431372 W1_204_0
   + 0.6078431372549019 W1_205_0 + 0.1058823529411765 W1_214_0
   + 0.996078431372549 W1_215_0 + 0.2470588235294118 W1_216_0
   + 0.6274509803921569 W1_232_0 + 0.8117647058823529 W1_233_0
   + 0.0235294117647059 W1_234_0 + 0.1058823529411765 W1_242_0
   + 0.996078431372549 W1_243_0 + 0.2549019607843137 W1_244_0
   + 0.4980392156862745 W1_260_0 + 0.996078431372549 W1_261_0
   + 0.0823529411764706 W1_262_0 + 0.0784313725490196 W1_270_0
   + 0.9372549019607843 W1_271_0 + 0.2549019607843137 W1_272_0
   + 0.3019607843137255 W1_288_0 + 0.996078431372549 W1_289_0
   + 0.0823529411764706 W1_290_0 + 0.7647058823529411 W1_299_0
   + 0.2549019607843137 W1_300_0 + 0.2745098039215687 W1_316_0
   + 0.996078431372549 W1_317_0 + 0.0823529411764706 W1_318_0
   + 0.7647058823529411 W1_327_0 + 0.5568627450980392 W1_328_0
   + 0.2196078431372549 W1_344_0 + 0.984313725490196 W1_345_0
   + 0.0823529411764706 W1_346_0 + 0.7647058823529411 W1_355_0
   + 0.8901960784313725 W1_356_0 + 0.8705882352941177 W1_373_0
   + 0.6 W1_374_0 + 0.0196078431372549 W1_375_0
   + 0.4705882352941176 W1_383_0 + 0.9411764705882353 W1_384_0
   + 0.0509803921568627 W1_385_0 + 0.2627450980392157 W1_401_0
   + 0.984313725490196 W1_402_0 + 0.1568627450980392 W1_403_0
   + 0.3686274509803922 W1_411_0 + W1_412_0 + 0.2705882352941176 W1_413_0
   + 0.9176470588235294 W1_430_0 + 0.7215686274509804 W1_431_0
   + 0.0745098039215686 W1_439_0 + 0.9607843137254902 W1_440_0
   + 0.2705882352941176 W1_441_0 + 0.9176470588235294 W1_458_0
   + 0.6627450980392157 W1_459_0 + 0.0117647058823529 W1_467_0
   + 0.7803921568627451 W1_468_0 + 0.7137254901960784 W1_469_0
   + 0.0392156862745098 W1_470_0 + 0.6039215686274509 W1_486_0
   + 0.803921568627451 W1_487_0 + 0.0156862745098039 W1_488_0
   + 0.1019607843137255 W1_491_0 + 0.2823529411764706 W1_492_0
   + 0.5019607843137255 W1_493_0 + 0.796078431372549 W1_494_0
   + 0.8156862745098039 W1_495_0 + 0.996078431372549 W1_496_0
   + 0.996078431372549 W1_497_0 + 0.5137254901960784 W1_498_0
   + 0.2392156862745098 W1_514_0 + 0.996078431372549 W1_515_0
   + 0.5058823529411764 W1_516_0 + 0.4431372549019608 W1_517_0
   + 0.7294117647058823 W1_518_0 + 0.9607843137254902 W1_519_0
   + 0.984313725490196 W1_520_0 + 0.7411764705882353 W1_521_0
   + 0.2941176470588235 W1_522_0 + 0.2196078431372549 W1_523_0
   + 0.5333333333333333 W1_524_0 + 0.996078431372549 W1_525_0
   + 0.2862745098039216 W1_526_0 + 0.0588235294117647 W1_542_0
   + 0.8470588235294118 W1_543_0 + 0.9137254901960784 W1_544_0
   + 0.9137254901960784 W1_545_0 + 0.6235294117647059 W1_546_0
   + 0.407843137254902 W1_547_0 + 0.203921568627451 W1_548_0
   + 0.1490196078431373 W1_552_0 + 0.996078431372549 W1_553_0
   + 0.2862745098039216 W1_554_0 + 0.0705882352941176 W1_580_0
   + 0.996078431372549 W1_581_0 + 0.2862745098039216 W1_582_0
   + 0.0705882352941176 W1_608_0 + 0.996078431372549 W1_609_0
   + 0.2862745098039216 W1_610_0 + 0.0196078431372549 W1_636_0
   + 0.807843137254902 W1_637_0 + 0.4156862745098039 W1_638_0
   + 0.7294117647058823 W1_665_0 + 0.6235294117647059 W1_666_0
   + 0.0235294117647059 W1_692_0 + 0.8196078431372549 W1_693_0
   + 0.396078431372549 W1_694_0 - 20 sign_inner_9_0 >= -19.999
 sign_0_pkj_neg_9_0: W1_0_0 + 0.8627450980392157 W1_147_0
   + 0.7019607843137254 W1_148_0 + 0.0235294117647059 W1_149_0
   + 0.0352941176470588 W1_158_0 + 0.3019607843137255 W1_159_0
   + 0.1098039215686274 W1_175_0 + 0.9686274509803922 W1_176_0
   + 0.0666666666666667 W1_177_0 + 0.1058823529411765 W1_186_0
   + 0.792156862745098 W1_187_0 + 0.9490196078431372 W1_204_0
   + 0.6078431372549019 W1_205_0 + 0.1058823529411765 W1_214_0
   + 0.996078431372549 W1_215_0 + 0.2470588235294118 W1_216_0
   + 0.6274509803921569 W1_232_0 + 0.8117647058823529 W1_233_0
   + 0.0235294117647059 W1_234_0 + 0.1058823529411765 W1_242_0
   + 0.996078431372549 W1_243_0 + 0.2549019607843137 W1_244_0
   + 0.4980392156862745 W1_260_0 + 0.996078431372549 W1_261_0
   + 0.0823529411764706 W1_262_0 + 0.0784313725490196 W1_270_0
   + 0.9372549019607843 W1_271_0 + 0.2549019607843137 W1_272_0
   + 0.3019607843137255 W1_288_0 + 0.996078431372549 W1_289_0
   + 0.0823529411764706 W1_290_0 + 0.7647058823529411 W1_299_0
   + 0.2549019607843137 W1_300_0 + 0.2745098039215687 W1_316_0
   + 0.996078431372549 W1_317_0 + 0.0823529411764706 W1_318_0
   + 0.7647058823529411 W1_327_0 + 0.5568627450980392 W1_328_0
   + 0.2196078431372549 W1_344_0 + 0.984313725490196 W1_345_0
   + 0.0823529411764706 W1_346_0 + 0.7647058823529411 W1_355_0
   + 0.8901960784313725 W1_356_0 + 0.8705882352941177 W1_373_0
   + 0.6 W1_374_0 + 0.0196078431372549 W1_375_0
   + 0.4705882352941176 W1_383_0 + 0.9411764705882353 W1_384_0
   + 0.0509803921568627 W1_385_0 + 0.2627450980392157 W1_401_0
   + 0.984313725490196 W1_402_0 + 0.1568627450980392 W1_403_0
   + 0.3686274509803922 W1_411_0 + W1_412_0 + 0.2705882352941176 W1_413_0
   + 0.9176470588235294 W1_430_0 + 0.7215686274509804 W1_431_0
   + 0.0745098039215686 W1_439_0 + 0.9607843137254902 W1_440_0
   + 0.2705882352941176 W1_441_0 + 0.9176470588235294 W1_458_0
   + 0.6627450980392157 W1_459_0 + 0.0117647058823529 W1_467_0
   + 0.7803921568627451 W1_468_0 + 0.7137254901960784 W1_469_0
   + 0.0392156862745098 W1_470_0 + 0.6039215686274509 W1_486_0
   + 0.803921568627451 W1_487_0 + 0.0156862745098039 W1_488_0
   + 0.1019607843137255 W1_491_0 + 0.2823529411764706 W1_492_0
   + 0.5019607843137255 W1_493_0 + 0.796078431372549 W1_494_0
   + 0.8156862745098039 W1_495_0 + 0.996078431372549 W1_496_0
   + 0.996078431372549 W1_497_0 + 0.5137254901960784 W1_498_0
   + 0.2392156862745098 W1_514_0 + 0.996078431372549 W1_515_0
   + 0.5058823529411764 W1_516_0 + 0.4431372549019608 W1_517_0
   + 0.7294117647058823 W1_518_0 + 0.9607843137254902 W1_519_0
   + 0.984313725490196 W1_520_0 + 0.7411764705882353 W1_521_0
   + 0.2941176470588235 W1_522_0 + 0.2196078431372549 W1_523_0
   + 0.5333333333333333 W1_524_0 + 0.996078431372549 W1_525_0
   + 0.2862745098039216 W1_526_0 + 0.0588235294117647 W1_542_0
   + 0.8470588235294118 W1_543_0 + 0.9137254901960784 W1_544_0
   + 0.9137254901960784 W1_545_0 + 0.6235294117647059 W1_546_0
   + 0.407843137254902 W1_547_0 + 0.203921568627451 W1_548_0
   + 0.1490196078431373 W1_552_0 + 0.996078431372549 W1_553_0
   + 0.2862745098039216 W1_554_0 + 0.0705882352941176 W1_580_0
   + 0.996078431372549 W1_581_0 + 0.2862745098039216 W1_582_0
   + 0.0705882352941176 W1_608_0 + 0.996078431372549 W1_609_0
   + 0.2862745098039216 W1_610_0 + 0.0196078431372549 W1_636_0
   + 0.807843137254902 W1_637_0 + 0.4156862745098039 W1_638_0
   + 0.7294117647058823 W1_665_0 + 0.6235294117647059 W1_666_0
   + 0.0235294117647059 W1_692_0 + 0.8196078431372549 W1_693_0
   + 0.396078431372549 W1_694_0 - 20 sign_inner_9_0 <= 0
 sign_1_pkj_pos_9_1: W1_0_1 + 0.8627450980392157 W1_147_1
   + 0.7019607843137254 W1_148_1 + 0.0235294117647059 W1_149_1
   + 0.0352941176470588 W1_158_1 + 0.3019607843137255 W1_159_1
   + 0.1098039215686274 W1_175_1 + 0.9686274509803922 W1_176_1
   + 0.0666666666666667 W1_177_1 + 0.1058823529411765 W1_186_1
   + 0.792156862745098 W1_187_1 + 0.9490196078431372 W1_204_1
   + 0.6078431372549019 W1_205_1 + 0.1058823529411765 W1_214_1
   + 0.996078431372549 W1_215_1 + 0.2470588235294118 W1_216_1
   + 0.6274509803921569 W1_232_1 + 0.8117647058823529 W1_233_1
   + 0.0235294117647059 W1_234_1 + 0.1058823529411765 W1_242_1
   + 0.996078431372549 W1_243_1 + 0.2549019607843137 W1_244_1
   + 0.4980392156862745 W1_260_1 + 0.996078431372549 W1_261_1
   + 0.0823529411764706 W1_262_1 + 0.0784313725490196 W1_270_1
   + 0.9372549019607843 W1_271_1 + 0.2549019607843137 W1_272_1
   + 0.3019607843137255 W1_288_1 + 0.996078431372549 W1_289_1
   + 0.0823529411764706 W1_290_1 + 0.7647058823529411 W1_299_1
   + 0.2549019607843137 W1_300_1 + 0.2745098039215687 W1_316_1
   + 0.996078431372549 W1_317_1 + 0.0823529411764706 W1_318_1
   + 0.7647058823529411 W1_327_1 + 0.5568627450980392 W1_328_1
   + 0.2196078431372549 W1_344_1 + 0.984313725490196 W1_345_1
   + 0.0823529411764706 W1_346_1 + 0.7647058823529411 W1_355_1
   + 0.8901960784313725 W1_356_1 + 0.8705882352941177 W1_373_1
   + 0.6 W1_374_1 + 0.0196078431372549 W1_375_1
   + 0.4705882352941176 W1_383_1 + 0.9411764705882353 W1_384_1
   + 0.0509803921568627 W1_385_1 + 0.2627450980392157 W1_401_1
   + 0.984313725490196 W1_402_1 + 0.1568627450980392 W1_403_1
   + 0.3686274509803922 W1_411_1 + W1_412_1 + 0.2705882352941176 W1_413_1
   + 0.9176470588235294 W1_430_1 + 0.7215686274509804 W1_431_1
   + 0.0745098039215686 W1_439_1 + 0.9607843137254902 W1_440_1
   + 0.2705882352941176 W1_441_1 + 0.9176470588235294 W1_458_1
   + 0.6627450980392157 W1_459_1 + 0.0117647058823529 W1_467_1
   + 0.7803921568627451 W1_468_1 + 0.7137254901960784 W1_469_1
   + 0.0392156862745098 W1_470_1 + 0.6039215686274509 W1_486_1
   + 0.803921568627451 W1_487_1 + 0.0156862745098039 W1_488_1
   + 0.1019607843137255 W1_491_1 + 0.2823529411764706 W1_492_1
   + 0.5019607843137255 W1_493_1 + 0.796078431372549 W1_494_1
   + 0.8156862745098039 W1_495_1 + 0.996078431372549 W1_496_1
   + 0.996078431372549 W1_497_1 + 0.5137254901960784 W1_498_1
   + 0.2392156862745098 W1_514_1 + 0.996078431372549 W1_515_1
   + 0.5058823529411764 W1_516_1 + 0.4431372549019608 W1_517_1
   + 0.7294117647058823 W1_518_1 + 0.9607843137254902 W1_519_1
   + 0.984313725490196 W1_520_1 + 0.7411764705882353 W1_521_1
   + 0.2941176470588235 W1_522_1 + 0.2196078431372549 W1_523_1
   + 0.5333333333333333 W1_524_1 + 0.996078431372549 W1_525_1
   + 0.2862745098039216 W1_526_1 + 0.0588235294117647 W1_542_1
   + 0.8470588235294118 W1_543_1 + 0.9137254901960784 W1_544_1
   + 0.9137254901960784 W1_545_1 + 0.6235294117647059 W1_546_1
   + 0.407843137254902 W1_547_1 + 0.203921568627451 W1_548_1
   + 0.1490196078431373 W1_552_1 + 0.996078431372549 W1_553_1
   + 0.2862745098039216 W1_554_1 + 0.0705882352941176 W1_580_1
   + 0.996078431372549 W1_581_1 + 0.2862745098039216 W1_582_1
   + 0.0705882352941176 W1_608_1 + 0.996078431372549 W1_609_1
   + 0.2862745098039216 W1_610_1 + 0.0196078431372549 W1_636_1
   + 0.807843137254902 W1_637_1 + 0.4156862745098039 W1_638_1
   + 0.7294117647058823 W1_665_1 + 0.6235294117647059 W1_666_1
   + 0.0235294117647059 W1_692_1 + 0.8196078431372549 W1_693_1
   + 0.396078431372549 W1_694_1 - 20 sign_inner_9_1 >= -19.999
 sign_0_pkj_neg_9_1: W1_0_1 + 0.8627450980392157 W1_147_1
   + 0.7019607843137254 W1_148_1 + 0.0235294117647059 W1_149_1
   + 0.0352941176470588 W1_158_1 + 0.3019607843137255 W1_159_1
   + 0.1098039215686274 W1_175_1 + 0.9686274509803922 W1_176_1
   + 0.0666666666666667 W1_177_1 + 0.1058823529411765 W1_186_1
   + 0.792156862745098 W1_187_1 + 0.9490196078431372 W1_204_1
   + 0.6078431372549019 W1_205_1 + 0.1058823529411765 W1_214_1
   + 0.996078431372549 W1_215_1 + 0.2470588235294118 W1_216_1
   + 0.6274509803921569 W1_232_1 + 0.8117647058823529 W1_233_1
   + 0.0235294117647059 W1_234_1 + 0.1058823529411765 W1_242_1
   + 0.996078431372549 W1_243_1 + 0.2549019607843137 W1_244_1
   + 0.4980392156862745 W1_260_1 + 0.996078431372549 W1_261_1
   + 0.0823529411764706 W1_262_1 + 0.0784313725490196 W1_270_1
   + 0.9372549019607843 W1_271_1 + 0.2549019607843137 W1_272_1
   + 0.3019607843137255 W1_288_1 + 0.996078431372549 W1_289_1
   + 0.0823529411764706 W1_290_1 + 0.7647058823529411 W1_299_1
   + 0.2549019607843137 W1_300_1 + 0.2745098039215687 W1_316_1
   + 0.996078431372549 W1_317_1 + 0.0823529411764706 W1_318_1
   + 0.7647058823529411 W1_327_1 + 0.5568627450980392 W1_328_1
   + 0.2196078431372549 W1_344_1 + 0.984313725490196 W1_345_1
   + 0.0823529411764706 W1_346_1 + 0.7647058823529411 W1_355_1
   + 0.8901960784313725 W1_356_1 + 0.8705882352941177 W1_373_1
   + 0.6 W1_374_1 + 0.0196078431372549 W1_375_1
   + 0.4705882352941176 W1_383_1 + 0.9411764705882353 W1_384_1
   + 0.0509803921568627 W1_385_1 + 0.2627450980392157 W1_401_1
   + 0.984313725490196 W1_402_1 + 0.1568627450980392 W1_403_1
   + 0.3686274509803922 W1_411_1 + W1_412_1 + 0.2705882352941176 W1_413_1
   + 0.9176470588235294 W1_430_1 + 0.7215686274509804 W1_431_1
   + 0.0745098039215686 W1_439_1 + 0.9607843137254902 W1_440_1
   + 0.2705882352941176 W1_441_1 + 0.9176470588235294 W1_458_1
   + 0.6627450980392157 W1_459_1 + 0.0117647058823529 W1_467_1
   + 0.7803921568627451 W1_468_1 + 0.7137254901960784 W1_469_1
   + 0.0392156862745098 W1_470_1 + 0.6039215686274509 W1_486_1
   + 0.803921568627451 W1_487_1 + 0.0156862745098039 W1_488_1
   + 0.1019607843137255 W1_491_1 + 0.2823529411764706 W1_492_1
   + 0.5019607843137255 W1_493_1 + 0.796078431372549 W1_494_1
   + 0.8156862745098039 W1_495_1 + 0.996078431372549 W1_496_1
   + 0.996078431372549 W1_497_1 + 0.5137254901960784 W1_498_1
   + 0.2392156862745098 W1_514_1 + 0.996078431372549 W1_515_1
   + 0.5058823529411764 W1_516_1 + 0.4431372549019608 W1_517_1
   + 0.7294117647058823 W1_518_1 + 0.9607843137254902 W1_519_1
   + 0.984313725490196 W1_520_1 + 0.7411764705882353 W1_521_1
   + 0.2941176470588235 W1_522_1 + 0.2196078431372549 W1_523_1
   + 0.5333333333333333 W1_524_1 + 0.996078431372549 W1_525_1
   + 0.2862745098039216 W1_526_1 + 0.0588235294117647 W1_542_1
   + 0.8470588235294118 W1_543_1 + 0.9137254901960784 W1_544_1
   + 0.9137254901960784 W1_545_1 + 0.6235294117647059 W1_546_1
   + 0.407843137254902 W1_547_1 + 0.203921568627451 W1_548_1
   + 0.1490196078431373 W1_552_1 + 0.996078431372549 W1_553_1
   + 0.2862745098039216 W1_554_1 + 0.0705882352941176 W1_580_1
   + 0.996078431372549 W1_581_1 + 0.2862745098039216 W1_582_1
   + 0.0705882352941176 W1_608_1 + 0.996078431372549 W1_609_1
   + 0.2862745098039216 W1_610_1 + 0.0196078431372549 W1_636_1
   + 0.807843137254902 W1_637_1 + 0.4156862745098039 W1_638_1
   + 0.7294117647058823 W1_665_1 + 0.6235294117647059 W1_666_1
   + 0.0235294117647059 W1_692_1 + 0.8196078431372549 W1_693_1
   + 0.396078431372549 W1_694_1 - 20 sign_inner_9_1 <= 0
 sign_1_pkj_pos_10_0: W1_0_0 + 0.4745098039215686 W1_152_0
   + 0.996078431372549 W1_153_0 + 0.996078431372549 W1_154_0
   + 0.8549019607843137 W1_155_0 + 0.7490196078431373 W1_156_0
   + 0.0862745098039216 W1_157_0 + 0.0117647058823529 W1_178_0
   + 0.3843137254901961 W1_179_0 + 0.8588235294117647 W1_180_0
   + 0.9921568627450981 W1_181_0 + 0.9921568627450981 W1_182_0
   + 0.9921568627450981 W1_183_0 + 0.9921568627450981 W1_184_0
   + 0.4470588235294118 W1_185_0 + 0.0313725490196078 W1_186_0
   + 0.1725490196078431 W1_206_0 + 0.9921568627450981 W1_207_0
   + 0.9921568627450981 W1_208_0 + 0.9921568627450981 W1_209_0
   + 0.9921568627450981 W1_210_0 + 0.9921568627450981 W1_211_0
   + 0.9921568627450981 W1_212_0 + 0.9921568627450981 W1_213_0
   + 0.8352941176470589 W1_214_0 + 0.0666666666666667 W1_215_0
   + 0.4117647058823529 W1_234_0 + 0.9921568627450981 W1_235_0
   + 0.9254901960784314 W1_236_0 + 0.8941176470588236 W1_237_0
   + 0.7647058823529411 W1_238_0 + 0.5529411764705883 W1_239_0
   + 0.8941176470588236 W1_240_0 + 0.9764705882352941 W1_241_0
   + 0.9921568627450981 W1_242_0 + 0.407843137254902 W1_243_0
   + 0.0666666666666667 W1_262_0 + 0.3882352941176471 W1_263_0
   + 0.1137254901960784 W1_264_0 + 0.4901960784313725 W1_269_0
   + 0.9764705882352941 W1_270_0 + 0.8431372549019608 W1_271_0
   + 0.0588235294117647 W1_272_0 + 0.7803921568627451 W1_298_0
   + 0.9921568627450981 W1_299_0 + 0.0941176470588235 W1_300_0
   + 0.0588235294117647 W1_325_0 + 0.7098039215686275 W1_326_0
   + 0.9921568627450981 W1_327_0 + 0.0941176470588235 W1_328_0
   + 0.0392156862745098 W1_347_0 + 0.196078431372549 W1_348_0
   + 0.0549019607843137 W1_349_0 + 0.2980392156862745 W1_351_0
   + 0.6823529411764706 W1_352_0 + 0.788235294117647 W1_353_0
   + 0.9921568627450981 W1_354_0 + 0.9176470588235294 W1_355_0
   + 0.0784313725490196 W1_356_0 + 0.3058823529411765 W1_375_0
   + 0.9921568627450981 W1_376_0 + 0.7803921568627451 W1_377_0
   + 0.4705882352941176 W1_378_0 + 0.9294117647058824 W1_379_0
   + 0.9921568627450981 W1_380_0 + 0.9921568627450981 W1_381_0
   + 0.9137254901960784 W1_382_0 + 0.2352941176470588 W1_383_0
   + 0.5607843137254902 W1_403_0 + 0.9921568627450981 W1_404_0
   + 0.9921568627450981 W1_405_0 + 0.9921568627450981 W1_406_0
   + 0.9921568627450981 W1_407_0 + 0.9921568627450981 W1_408_0
   + 0.788235294117647 W1_409_0 + 0.2392156862745098 W1_410_0
   + 0.0470588235294118 W1_431_0 + 0.5843137254901961 W1_432_0
   + 0.792156862745098 W1_433_0 + 0.9921568627450981 W1_434_0
   + 0.9921568627450981 W1_435_0 + 0.9921568627450981 W1_436_0
   + 0.6274509803921569 W1_437_0 + 0.0392156862745098 W1_438_0
   + 0.0549019607843137 W1_461_0 + 0.2156862745098039 W1_462_0
   + 0.3607843137254902 W1_463_0 + 0.792156862745098 W1_464_0
   + 0.9921568627450981 W1_465_0 + 0.2862745098039216 W1_466_0
   + 0.0627450980392157 W1_492_0 + 0.8588235294117647 W1_493_0
   + 0.9215686274509803 W1_494_0 + 0.2509803921568627 W1_495_0
   + 0.1411764705882353 W1_521_0 + 0.7098039215686275 W1_522_0
   + 0.7372549019607844 W1_523_0 + 0.0352941176470588 W1_524_0
   + 0.2274509803921569 W1_540_0 + 0.1333333333333333 W1_541_0
   + 0.3686274509803922 W1_550_0 + 0.9921568627450981 W1_551_0
   + 0.0941176470588235 W1_552_0 + 0.0392156862745098 W1_567_0
   + 0.7607843137254902 W1_568_0 + 0.788235294117647 W1_569_0
   + 0.3686274509803922 W1_578_0 + 0.9921568627450981 W1_579_0
   + 0.0941176470588235 W1_580_0 + 0.0117647058823529 W1_595_0
   + 0.6431372549019608 W1_596_0 + 0.9803921568627451 W1_597_0
   + 0.3058823529411765 W1_598_0 + 0.3686274509803922 W1_606_0
   + 0.9921568627450981 W1_607_0 + 0.0941176470588235 W1_608_0
   + 0.6078431372549019 W1_624_0 + 0.9921568627450981 W1_625_0
   + 0.9490196078431372 W1_626_0 + 0.5882352941176471 W1_627_0
   + 0.3450980392156863 W1_628_0 + 0.2156862745098039 W1_631_0
   + 0.3568627450980392 W1_632_0 + 0.4392156862745098 W1_633_0
   + 0.8823529411764706 W1_634_0 + 0.9921568627450981 W1_635_0
   + 0.0941176470588235 W1_636_0 + 0.0901960784313725 W1_652_0
   + 0.8235294117647058 W1_653_0 + 0.9921568627450981 W1_654_0
   + 0.9921568627450981 W1_655_0 + 0.984313725490196 W1_656_0
   + 0.9490196078431372 W1_657_0 + 0.2313725490196079 W1_658_0
   + 0.6235294117647059 W1_659_0 + 0.8901960784313725 W1_660_0
   + 0.9921568627450981 W1_661_0 + 0.8235294117647058 W1_662_0
   + 0.3411764705882353 W1_663_0 + 0.00784313725490196 W1_664_0
   + 0.396078431372549 W1_681_0 + 0.9921568627450981 W1_682_0
   + 0.9921568627450981 W1_683_0 + 0.9921568627450981 W1_684_0
   + 0.9921568627450981 W1_685_0 + 0.9764705882352941 W1_686_0
   + 0.8470588235294118 W1_687_0 + 0.3529411764705883 W1_688_0
   + 0.2588235294117647 W1_689_0 + 0.0156862745098039 W1_690_0
   - 20 sign_inner_10_0 >= -19.999
 sign_0_pkj_neg_10_0: W1_0_0 + 0.4745098039215686 W1_152_0
   + 0.996078431372549 W1_153_0 + 0.996078431372549 W1_154_0
   + 0.8549019607843137 W1_155_0 + 0.7490196078431373 W1_156_0
   + 0.0862745098039216 W1_157_0 + 0.0117647058823529 W1_178_0
   + 0.3843137254901961 W1_179_0 + 0.8588235294117647 W1_180_0
   + 0.9921568627450981 W1_181_0 + 0.9921568627450981 W1_182_0
   + 0.9921568627450981 W1_183_0 + 0.9921568627450981 W1_184_0
   + 0.4470588235294118 W1_185_0 + 0.0313725490196078 W1_186_0
   + 0.1725490196078431 W1_206_0 + 0.9921568627450981 W1_207_0
   + 0.9921568627450981 W1_208_0 + 0.9921568627450981 W1_209_0
   + 0.9921568627450981 W1_210_0 + 0.9921568627450981 W1_211_0
   + 0.9921568627450981 W1_212_0 + 0.9921568627450981 W1_213_0
   + 0.8352941176470589 W1_214_0 + 0.0666666666666667 W1_215_0
   + 0.4117647058823529 W1_234_0 + 0.9921568627450981 W1_235_0
   + 0.9254901960784314 W1_236_0 + 0.8941176470588236 W1_237_0
   + 0.7647058823529411 W1_238_0 + 0.5529411764705883 W1_239_0
   + 0.8941176470588236 W1_240_0 + 0.9764705882352941 W1_241_0
   + 0.9921568627450981 W1_242_0 + 0.407843137254902 W1_243_0
   + 0.0666666666666667 W1_262_0 + 0.3882352941176471 W1_263_0
   + 0.1137254901960784 W1_264_0 + 0.4901960784313725 W1_269_0
   + 0.9764705882352941 W1_270_0 + 0.8431372549019608 W1_271_0
   + 0.0588235294117647 W1_272_0 + 0.7803921568627451 W1_298_0
   + 0.9921568627450981 W1_299_0 + 0.0941176470588235 W1_300_0
   + 0.0588235294117647 W1_325_0 + 0.7098039215686275 W1_326_0
   + 0.9921568627450981 W1_327_0 + 0.0941176470588235 W1_328_0
   + 0.0392156862745098 W1_347_0 + 0.196078431372549 W1_348_0
   + 0.0549019607843137 W1_349_0 + 0.2980392156862745 W1_351_0
   + 0.6823529411764706 W1_352_0 + 0.788235294117647 W1_353_0
   + 0.9921568627450981 W1_354_0 + 0.9176470588235294 W1_355_0
   + 0.0784313725490196 W1_356_0 + 0.3058823529411765 W1_375_0
   + 0.9921568627450981 W1_376_0 + 0.7803921568627451 W1_377_0
   + 0.4705882352941176 W1_378_0 + 0.9294117647058824 W1_379_0
   + 0.9921568627450981 W1_380_0 + 0.9921568627450981 W1_381_0
   + 0.9137254901960784 W1_382_0 + 0.2352941176470588 W1_383_0
   + 0.5607843137254902 W1_403_0 + 0.9921568627450981 W1_404_0
   + 0.9921568627450981 W1_405_0 + 0.9921568627450981 W1_406_0
   + 0.9921568627450981 W1_407_0 + 0.9921568627450981 W1_408_0
   + 0.788235294117647 W1_409_0 + 0.2392156862745098 W1_410_0
   + 0.0470588235294118 W1_431_0 + 0.5843137254901961 W1_432_0
   + 0.792156862745098 W1_433_0 + 0.9921568627450981 W1_434_0
   + 0.9921568627450981 W1_435_0 + 0.9921568627450981 W1_436_0
   + 0.6274509803921569 W1_437_0 + 0.0392156862745098 W1_438_0
   + 0.0549019607843137 W1_461_0 + 0.2156862745098039 W1_462_0
   + 0.3607843137254902 W1_463_0 + 0.792156862745098 W1_464_0
   + 0.9921568627450981 W1_465_0 + 0.2862745098039216 W1_466_0
   + 0.0627450980392157 W1_492_0 + 0.8588235294117647 W1_493_0
   + 0.9215686274509803 W1_494_0 + 0.2509803921568627 W1_495_0
   + 0.1411764705882353 W1_521_0 + 0.7098039215686275 W1_522_0
   + 0.7372549019607844 W1_523_0 + 0.0352941176470588 W1_524_0
   + 0.2274509803921569 W1_540_0 + 0.1333333333333333 W1_541_0
   + 0.3686274509803922 W1_550_0 + 0.9921568627450981 W1_551_0
   + 0.0941176470588235 W1_552_0 + 0.0392156862745098 W1_567_0
   + 0.7607843137254902 W1_568_0 + 0.788235294117647 W1_569_0
   + 0.3686274509803922 W1_578_0 + 0.9921568627450981 W1_579_0
   + 0.0941176470588235 W1_580_0 + 0.0117647058823529 W1_595_0
   + 0.6431372549019608 W1_596_0 + 0.9803921568627451 W1_597_0
   + 0.3058823529411765 W1_598_0 + 0.3686274509803922 W1_606_0
   + 0.9921568627450981 W1_607_0 + 0.0941176470588235 W1_608_0
   + 0.6078431372549019 W1_624_0 + 0.9921568627450981 W1_625_0
   + 0.9490196078431372 W1_626_0 + 0.5882352941176471 W1_627_0
   + 0.3450980392156863 W1_628_0 + 0.2156862745098039 W1_631_0
   + 0.3568627450980392 W1_632_0 + 0.4392156862745098 W1_633_0
   + 0.8823529411764706 W1_634_0 + 0.9921568627450981 W1_635_0
   + 0.0941176470588235 W1_636_0 + 0.0901960784313725 W1_652_0
   + 0.8235294117647058 W1_653_0 + 0.9921568627450981 W1_654_0
   + 0.9921568627450981 W1_655_0 + 0.984313725490196 W1_656_0
   + 0.9490196078431372 W1_657_0 + 0.2313725490196079 W1_658_0
   + 0.6235294117647059 W1_659_0 + 0.8901960784313725 W1_660_0
   + 0.9921568627450981 W1_661_0 + 0.8235294117647058 W1_662_0
   + 0.3411764705882353 W1_663_0 + 0.00784313725490196 W1_664_0
   + 0.396078431372549 W1_681_0 + 0.9921568627450981 W1_682_0
   + 0.9921568627450981 W1_683_0 + 0.9921568627450981 W1_684_0
   + 0.9921568627450981 W1_685_0 + 0.9764705882352941 W1_686_0
   + 0.8470588235294118 W1_687_0 + 0.3529411764705883 W1_688_0
   + 0.2588235294117647 W1_689_0 + 0.0156862745098039 W1_690_0
   - 20 sign_inner_10_0 <= 0
 sign_1_pkj_pos_10_1: W1_0_1 + 0.4745098039215686 W1_152_1
   + 0.996078431372549 W1_153_1 + 0.996078431372549 W1_154_1
   + 0.8549019607843137 W1_155_1 + 0.7490196078431373 W1_156_1
   + 0.0862745098039216 W1_157_1 + 0.0117647058823529 W1_178_1
   + 0.3843137254901961 W1_179_1 + 0.8588235294117647 W1_180_1
   + 0.9921568627450981 W1_181_1 + 0.9921568627450981 W1_182_1
   + 0.9921568627450981 W1_183_1 + 0.9921568627450981 W1_184_1
   + 0.4470588235294118 W1_185_1 + 0.0313725490196078 W1_186_1
   + 0.1725490196078431 W1_206_1 + 0.9921568627450981 W1_207_1
   + 0.9921568627450981 W1_208_1 + 0.9921568627450981 W1_209_1
   + 0.9921568627450981 W1_210_1 + 0.9921568627450981 W1_211_1
   + 0.9921568627450981 W1_212_1 + 0.9921568627450981 W1_213_1
   + 0.8352941176470589 W1_214_1 + 0.0666666666666667 W1_215_1
   + 0.4117647058823529 W1_234_1 + 0.9921568627450981 W1_235_1
   + 0.9254901960784314 W1_236_1 + 0.8941176470588236 W1_237_1
   + 0.7647058823529411 W1_238_1 + 0.5529411764705883 W1_239_1
   + 0.8941176470588236 W1_240_1 + 0.9764705882352941 W1_241_1
   + 0.9921568627450981 W1_242_1 + 0.407843137254902 W1_243_1
   + 0.0666666666666667 W1_262_1 + 0.3882352941176471 W1_263_1
   + 0.1137254901960784 W1_264_1 + 0.4901960784313725 W1_269_1
   + 0.9764705882352941 W1_270_1 + 0.8431372549019608 W1_271_1
   + 0.0588235294117647 W1_272_1 + 0.7803921568627451 W1_298_1
   + 0.9921568627450981 W1_299_1 + 0.0941176470588235 W1_300_1
   + 0.0588235294117647 W1_325_1 + 0.7098039215686275 W1_326_1
   + 0.9921568627450981 W1_327_1 + 0.0941176470588235 W1_328_1
   + 0.0392156862745098 W1_347_1 + 0.196078431372549 W1_348_1
   + 0.0549019607843137 W1_349_1 + 0.2980392156862745 W1_351_1
   + 0.6823529411764706 W1_352_1 + 0.788235294117647 W1_353_1
   + 0.9921568627450981 W1_354_1 + 0.9176470588235294 W1_355_1
   + 0.0784313725490196 W1_356_1 + 0.3058823529411765 W1_375_1
   + 0.9921568627450981 W1_376_1 + 0.7803921568627451 W1_377_1
   + 0.4705882352941176 W1_378_1 + 0.9294117647058824 W1_379_1
   + 0.9921568627450981 W1_380_1 + 0.9921568627450981 W1_381_1
   + 0.9137254901960784 W1_382_1 + 0.2352941176470588 W1_383_1
   + 0.5607843137254902 W1_403_1 + 0.9921568627450981 W1_404_1
   + 0.9921568627450981 W1_405_1 + 0.9921568627450981 W1_406_1
   + 0.9921568627450981 W1_407_1 + 0.9921568627450981 W1_408_1
   + 0.788235294117647 W1_409_1 + 0.2392156862745098 W1_410_1
   + 0.0470588235294118 W1_431_1 + 0.5843137254901961 W1_432_1
   + 0.792156862745098 W1_433_1 + 0.9921568627450981 W1_434_1
   + 0.9921568627450981 W1_435_1 + 0.9921568627450981 W1_436_1
   + 0.6274509803921569 W1_437_1 + 0.0392156862745098 W1_438_1
   + 0.0549019607843137 W1_461_1 + 0.2156862745098039 W1_462_1
   + 0.3607843137254902 W1_463_1 + 0.792156862745098 W1_464_1
   + 0.9921568627450981 W1_465_1 + 0.2862745098039216 W1_466_1
   + 0.0627450980392157 W1_492_1 + 0.8588235294117647 W1_493_1
   + 0.9215686274509803 W1_494_1 + 0.2509803921568627 W1_495_1
   + 0.1411764705882353 W1_521_1 + 0.7098039215686275 W1_522_1
   + 0.7372549019607844 W1_523_1 + 0.0352941176470588 W1_524_1
   + 0.2274509803921569 W1_540_1 + 0.1333333333333333 W1_541_1
   + 0.3686274509803922 W1_550_1 + 0.9921568627450981 W1_551_1
   + 0.0941176470588235 W1_552_1 + 0.0392156862745098 W1_567_1
   + 0.7607843137254902 W1_568_1 + 0.788235294117647 W1_569_1
   + 0.3686274509803922 W1_578_1 + 0.9921568627450981 W1_579_1
   + 0.0941176470588235 W1_580_1 + 0.0117647058823529 W1_595_1
   + 0.6431372549019608 W1_596_1 + 0.9803921568627451 W1_597_1
   + 0.3058823529411765 W1_598_1 + 0.3686274509803922 W1_606_1
   + 0.9921568627450981 W1_607_1 + 0.0941176470588235 W1_608_1
   + 0.6078431372549019 W1_624_1 + 0.9921568627450981 W1_625_1
   + 0.9490196078431372 W1_626_1 + 0.5882352941176471 W1_627_1
   + 0.3450980392156863 W1_628_1 + 0.2156862745098039 W1_631_1
   + 0.3568627450980392 W1_632_1 + 0.4392156862745098 W1_633_1
   + 0.8823529411764706 W1_634_1 + 0.9921568627450981 W1_635_1
   + 0.0941176470588235 W1_636_1 + 0.0901960784313725 W1_652_1
   + 0.8235294117647058 W1_653_1 + 0.9921568627450981 W1_654_1
   + 0.9921568627450981 W1_655_1 + 0.984313725490196 W1_656_1
   + 0.9490196078431372 W1_657_1 + 0.2313725490196079 W1_658_1
   + 0.6235294117647059 W1_659_1 + 0.8901960784313725 W1_660_1
   + 0.9921568627450981 W1_661_1 + 0.8235294117647058 W1_662_1
   + 0.3411764705882353 W1_663_1 + 0.00784313725490196 W1_664_1
   + 0.396078431372549 W1_681_1 + 0.9921568627450981 W1_682_1
   + 0.9921568627450981 W1_683_1 + 0.9921568627450981 W1_684_1
   + 0.9921568627450981 W1_685_1 + 0.9764705882352941 W1_686_1
   + 0.8470588235294118 W1_687_1 + 0.3529411764705883 W1_688_1
   + 0.2588235294117647 W1_689_1 + 0.0156862745098039 W1_690_1
   - 20 sign_inner_10_1 >= -19.999
 sign_0_pkj_neg_10_1: W1_0_1 + 0.4745098039215686 W1_152_1
   + 0.996078431372549 W1_153_1 + 0.996078431372549 W1_154_1
   + 0.8549019607843137 W1_155_1 + 0.7490196078431373 W1_156_1
   + 0.0862745098039216 W1_157_1 + 0.0117647058823529 W1_178_1
   + 0.3843137254901961 W1_179_1 + 0.8588235294117647 W1_180_1
   + 0.9921568627450981 W1_181_1 + 0.9921568627450981 W1_182_1
   + 0.9921568627450981 W1_183_1 + 0.9921568627450981 W1_184_1
   + 0.4470588235294118 W1_185_1 + 0.0313725490196078 W1_186_1
   + 0.1725490196078431 W1_206_1 + 0.9921568627450981 W1_207_1
   + 0.9921568627450981 W1_208_1 + 0.9921568627450981 W1_209_1
   + 0.9921568627450981 W1_210_1 + 0.9921568627450981 W1_211_1
   + 0.9921568627450981 W1_212_1 + 0.9921568627450981 W1_213_1
   + 0.8352941176470589 W1_214_1 + 0.0666666666666667 W1_215_1
   + 0.4117647058823529 W1_234_1 + 0.9921568627450981 W1_235_1
   + 0.9254901960784314 W1_236_1 + 0.8941176470588236 W1_237_1
   + 0.7647058823529411 W1_238_1 + 0.5529411764705883 W1_239_1
   + 0.8941176470588236 W1_240_1 + 0.9764705882352941 W1_241_1
   + 0.9921568627450981 W1_242_1 + 0.407843137254902 W1_243_1
   + 0.0666666666666667 W1_262_1 + 0.3882352941176471 W1_263_1
   + 0.1137254901960784 W1_264_1 + 0.4901960784313725 W1_269_1
   + 0.9764705882352941 W1_270_1 + 0.8431372549019608 W1_271_1
   + 0.0588235294117647 W1_272_1 + 0.7803921568627451 W1_298_1
   + 0.9921568627450981 W1_299_1 + 0.0941176470588235 W1_300_1
   + 0.0588235294117647 W1_325_1 + 0.7098039215686275 W1_326_1
   + 0.9921568627450981 W1_327_1 + 0.0941176470588235 W1_328_1
   + 0.0392156862745098 W1_347_1 + 0.196078431372549 W1_348_1
   + 0.0549019607843137 W1_349_1 + 0.2980392156862745 W1_351_1
   + 0.6823529411764706 W1_352_1 + 0.788235294117647 W1_353_1
   + 0.9921568627450981 W1_354_1 + 0.9176470588235294 W1_355_1
   + 0.0784313725490196 W1_356_1 + 0.3058823529411765 W1_375_1
   + 0.9921568627450981 W1_376_1 + 0.7803921568627451 W1_377_1
   + 0.4705882352941176 W1_378_1 + 0.9294117647058824 W1_379_1
   + 0.9921568627450981 W1_380_1 + 0.9921568627450981 W1_381_1
   + 0.9137254901960784 W1_382_1 + 0.2352941176470588 W1_383_1
   + 0.5607843137254902 W1_403_1 + 0.9921568627450981 W1_404_1
   + 0.9921568627450981 W1_405_1 + 0.9921568627450981 W1_406_1
   + 0.9921568627450981 W1_407_1 + 0.9921568627450981 W1_408_1
   + 0.788235294117647 W1_409_1 + 0.2392156862745098 W1_410_1
   + 0.0470588235294118 W1_431_1 + 0.5843137254901961 W1_432_1
   + 0.792156862745098 W1_433_1 + 0.9921568627450981 W1_434_1
   + 0.9921568627450981 W1_435_1 + 0.9921568627450981 W1_436_1
   + 0.6274509803921569 W1_437_1 + 0.0392156862745098 W1_438_1
   + 0.0549019607843137 W1_461_1 + 0.2156862745098039 W1_462_1
   + 0.3607843137254902 W1_463_1 + 0.792156862745098 W1_464_1
   + 0.9921568627450981 W1_465_1 + 0.2862745098039216 W1_466_1
   + 0.0627450980392157 W1_492_1 + 0.8588235294117647 W1_493_1
   + 0.9215686274509803 W1_494_1 + 0.2509803921568627 W1_495_1
   + 0.1411764705882353 W1_521_1 + 0.7098039215686275 W1_522_1
   + 0.7372549019607844 W1_523_1 + 0.0352941176470588 W1_524_1
   + 0.2274509803921569 W1_540_1 + 0.1333333333333333 W1_541_1
   + 0.3686274509803922 W1_550_1 + 0.9921568627450981 W1_551_1
   + 0.0941176470588235 W1_552_1 + 0.0392156862745098 W1_567_1
   + 0.7607843137254902 W1_568_1 + 0.788235294117647 W1_569_1
   + 0.3686274509803922 W1_578_1 + 0.9921568627450981 W1_579_1
   + 0.0941176470588235 W1_580_1 + 0.0117647058823529 W1_595_1
   + 0.6431372549019608 W1_596_1 + 0.9803921568627451 W1_597_1
   + 0.3058823529411765 W1_598_1 + 0.3686274509803922 W1_606_1
   + 0.9921568627450981 W1_607_1 + 0.0941176470588235 W1_608_1
   + 0.6078431372549019 W1_624_1 + 0.9921568627450981 W1_625_1
   + 0.9490196078431372 W1_626_1 + 0.5882352941176471 W1_627_1
   + 0.3450980392156863 W1_628_1 + 0.2156862745098039 W1_631_1
   + 0.3568627450980392 W1_632_1 + 0.4392156862745098 W1_633_1
   + 0.8823529411764706 W1_634_1 + 0.9921568627450981 W1_635_1
   + 0.0941176470588235 W1_636_1 + 0.0901960784313725 W1_652_1
   + 0.8235294117647058 W1_653_1 + 0.9921568627450981 W1_654_1
   + 0.9921568627450981 W1_655_1 + 0.984313725490196 W1_656_1
   + 0.9490196078431372 W1_657_1 + 0.2313725490196079 W1_658_1
   + 0.6235294117647059 W1_659_1 + 0.8901960784313725 W1_660_1
   + 0.9921568627450981 W1_661_1 + 0.8235294117647058 W1_662_1
   + 0.3411764705882353 W1_663_1 + 0.00784313725490196 W1_664_1
   + 0.396078431372549 W1_681_1 + 0.9921568627450981 W1_682_1
   + 0.9921568627450981 W1_683_1 + 0.9921568627450981 W1_684_1
   + 0.9921568627450981 W1_685_1 + 0.9764705882352941 W1_686_1
   + 0.8470588235294118 W1_687_1 + 0.3529411764705883 W1_688_1
   + 0.2588235294117647 W1_689_1 + 0.0156862745098039 W1_690_1
   - 20 sign_inner_10_1 <= 0
 sign_1_pkj_pos_11_0: W1_0_0 + 0.0274509803921569 W1_127_0
   + 0.3450980392156863 W1_128_0 + 0.611764705882353 W1_129_0
   + 0.9921568627450981 W1_130_0 + 0.6313725490196078 W1_131_0
   + 0.1372549019607843 W1_132_0 + 0.00784313725490196 W1_133_0
   + 0.0470588235294118 W1_153_0 + 0.3450980392156863 W1_154_0
   + 0.807843137254902 W1_155_0 + 0.9882352941176471 W1_156_0
   + 0.9882352941176471 W1_157_0 + 0.9882352941176471 W1_158_0
   + 0.9882352941176471 W1_159_0 + 0.9882352941176471 W1_160_0
   + 0.1411764705882353 W1_161_0 + 0.1254901960784314 W1_179_0
   + 0.5725490196078431 W1_180_0 + 0.792156862745098 W1_181_0
   + 0.9921568627450981 W1_182_0 + 0.9882352941176471 W1_183_0
   + 0.9019607843137255 W1_184_0 + 0.3764705882352941 W1_185_0
   + 0.3764705882352941 W1_186_0 + 0.8431372549019608 W1_187_0
   + 0.9882352941176471 W1_188_0 + 0.4352941176470588 W1_189_0
   + 0.2235294117647059 W1_206_0 + 0.9450980392156862 W1_207_0
   + 0.9882352941176471 W1_208_0 + 0.9882352941176471 W1_209_0
   + 0.9921568627450981 W1_210_0 + 0.8352941176470589 W1_211_0
   + 0.2823529411764706 W1_212_0 + 0.7568627450980392 W1_215_0
   + 0.9882352941176471 W1_216_0 + 0.8627450980392157 W1_217_0
   + 0.0627450980392157 W1_218_0 + 0.3333333333333333 W1_234_0
   + 0.9882352941176471 W1_235_0 + 0.9882352941176471 W1_236_0
   + 0.8745098039215686 W1_237_0 + 0.5058823529411764 W1_238_0
   + 0.1215686274509804 W1_239_0 + 0.0588235294117647 W1_242_0
   + 0.8117647058823529 W1_243_0 + 0.9882352941176471 W1_244_0
   + 0.7176470588235294 W1_245_0 + 0.0274509803921569 W1_246_0
   + 0.0784313725490196 W1_262_0 + 0.2352941176470588 W1_263_0
   + 0.2352941176470588 W1_264_0 + 0.1215686274509804 W1_265_0
   + 0.596078431372549 W1_270_0 + 0.9882352941176471 W1_271_0
   + 0.9882352941176471 W1_272_0 + 0.2509803921568627 W1_273_0
   + 0.3137254901960784 W1_297_0 + 0.9372549019607843 W1_298_0
   + 0.9882352941176471 W1_299_0 + 0.9882352941176471 W1_300_0
   + 0.1411764705882353 W1_301_0 + 0.1254901960784314 W1_324_0
   + 0.9450980392156862 W1_325_0 + 0.9882352941176471 W1_326_0
   + 0.8784313725490196 W1_327_0 + 0.2274509803921569 W1_328_0
   + 0.0196078431372549 W1_329_0 + 0.2470588235294118 W1_351_0
   + 0.7333333333333333 W1_352_0 + 0.9882352941176471 W1_353_0
   + 0.9882352941176471 W1_354_0 + 0.5019607843137255 W1_355_0
   + 0.207843137254902 W1_376_0 + 0.4745098039215686 W1_377_0
   + 0.9490196078431372 W1_378_0 + 0.9686274509803922 W1_379_0
   + 0.9882352941176471 W1_380_0 + 0.9882352941176471 W1_381_0
   + 0.7607843137254902 W1_382_0 + 0.0117647058823529 W1_383_0
   + 0.8549019607843137 W1_403_0 + 0.9921568627450981 W1_404_0
   + 0.9921568627450981 W1_405_0 + W1_406_0 + 0.9882352941176471 W1_407_0
   + 0.9529411764705882 W1_408_0 + 0.9921568627450981 W1_409_0
   + 0.8784313725490196 W1_410_0 + 0.1254901960784314 W1_411_0
   + 0.7686274509803922 W1_431_0 + 0.9803921568627451 W1_432_0
   + 0.8980392156862745 W1_433_0 + 0.8745098039215686 W1_434_0
   + 0.3843137254901961 W1_435_0 + 0.1450980392156863 W1_436_0
   + 0.9882352941176471 W1_437_0 + 0.9882352941176471 W1_438_0
   + 0.2352941176470588 W1_439_0 + 0.3411764705882353 W1_460_0
   + 0.0196078431372549 W1_461_0 + 0.1450980392156863 W1_464_0
   + 0.9882352941176471 W1_465_0 + 0.9882352941176471 W1_466_0
   + 0.2352941176470588 W1_467_0 + 0.1450980392156863 W1_492_0
   + 0.9882352941176471 W1_493_0 + 0.9882352941176471 W1_494_0
   + 0.2352941176470588 W1_495_0 + 0.2588235294117647 W1_520_0
   + 0.9882352941176471 W1_521_0 + 0.9882352941176471 W1_522_0
   + 0.2352941176470588 W1_523_0 + 0.0274509803921569 W1_537_0
   + 0.2862745098039216 W1_538_0 + 0.2862745098039216 W1_539_0
   + 0.0823529411764706 W1_540_0 + 0.0274509803921569 W1_547_0
   + 0.7215686274509804 W1_548_0 + 0.9882352941176471 W1_549_0
   + 0.807843137254902 W1_550_0 + 0.0549019607843137 W1_551_0
   + 0.4823529411764706 W1_565_0 + 0.9882352941176471 W1_566_0
   + 0.9882352941176471 W1_567_0 + 0.8549019607843137 W1_568_0
   + 0.6666666666666666 W1_569_0 + 0.0627450980392157 W1_570_0
   + 0.4823529411764706 W1_575_0 + 0.9882352941176471 W1_576_0
   + 0.9882352941176471 W1_577_0 + 0.592156862745098 W1_578_0
   + 0.5686274509803921 W1_593_0 + 0.9882352941176471 W1_594_0
   + 0.9882352941176471 W1_595_0 + 0.9882352941176471 W1_596_0
   + 0.9882352941176471 W1_597_0 + 0.1882352941176471 W1_598_0
   + 0.3294117647058823 W1_599_0 + 0.5803921568627451 W1_600_0
   + 0.8509803921568627 W1_601_0 + 0.8549019607843137 W1_602_0
   + 0.9294117647058824 W1_603_0 + 0.9882352941176471 W1_604_0
   + 0.6431372549019608 W1_605_0 + 0.0392156862745098 W1_606_0
   + 0.3254901960784314 W1_621_0 + 0.8274509803921568 W1_622_0
   + 0.9882352941176471 W1_623_0 + 0.9882352941176471 W1_624_0
   + 0.9882352941176471 W1_625_0 + 0.9137254901960784 W1_626_0
   + 0.9764705882352941 W1_627_0 + 0.9882352941176471 W1_628_0
   + 0.9882352941176471 W1_629_0 + 0.9921568627450981 W1_630_0
   + 0.9490196078431372 W1_631_0 + 0.4980392156862745 W1_632_0
   + 0.0313725490196078 W1_633_0 + 0.0980392156862745 W1_650_0
   + 0.5137254901960784 W1_651_0 + 0.8549019607843137 W1_652_0
   + 0.9882352941176471 W1_653_0 + 0.9882352941176471 W1_654_0
   + 0.9882352941176471 W1_655_0 + 0.9882352941176471 W1_656_0
   + 0.7607843137254902 W1_657_0 + 0.2705882352941176 W1_658_0
   + 0.0392156862745098 W1_659_0 - 20 sign_inner_11_0 >= -19.999
 sign_0_pkj_neg_11_0: W1_0_0 + 0.0274509803921569 W1_127_0
   + 0.3450980392156863 W1_128_0 + 0.611764705882353 W1_129_0
   + 0.9921568627450981 W1_130_0 + 0.6313725490196078 W1_131_0
   + 0.1372549019607843 W1_132_0 + 0.00784313725490196 W1_133_0
   + 0.0470588235294118 W1_153_0 + 0.3450980392156863 W1_154_0
   + 0.807843137254902 W1_155_0 + 0.9882352941176471 W1_156_0
   + 0.9882352941176471 W1_157_0 + 0.9882352941176471 W1_158_0
   + 0.9882352941176471 W1_159_0 + 0.9882352941176471 W1_160_0
   + 0.1411764705882353 W1_161_0 + 0.1254901960784314 W1_179_0
   + 0.5725490196078431 W1_180_0 + 0.792156862745098 W1_181_0
   + 0.9921568627450981 W1_182_0 + 0.9882352941176471 W1_183_0
   + 0.9019607843137255 W1_184_0 + 0.3764705882352941 W1_185_0
   + 0.3764705882352941 W1_186_0 + 0.8431372549019608 W1_187_0
   + 0.9882352941176471 W1_188_0 + 0.4352941176470588 W1_189_0
   + 0.2235294117647059 W1_206_0 + 0.9450980392156862 W1_207_0
   + 0.9882352941176471 W1_208_0 + 0.9882352941176471 W1_209_0
   + 0.9921568627450981 W1_210_0 + 0.8352941176470589 W1_211_0
   + 0.2823529411764706 W1_212_0 + 0.7568627450980392 W1_215_0
   + 0.9882352941176471 W1_216_0 + 0.8627450980392157 W1_217_0
   + 0.0627450980392157 W1_218_0 + 0.3333333333333333 W1_234_0
   + 0.9882352941176471 W1_235_0 + 0.9882352941176471 W1_236_0
   + 0.8745098039215686 W1_237_0 + 0.5058823529411764 W1_238_0
   + 0.1215686274509804 W1_239_0 + 0.0588235294117647 W1_242_0
   + 0.8117647058823529 W1_243_0 + 0.9882352941176471 W1_244_0
   + 0.7176470588235294 W1_245_0 + 0.0274509803921569 W1_246_0
   + 0.0784313725490196 W1_262_0 + 0.2352941176470588 W1_263_0
   + 0.2352941176470588 W1_264_0 + 0.1215686274509804 W1_265_0
   + 0.596078431372549 W1_270_0 + 0.9882352941176471 W1_271_0
   + 0.9882352941176471 W1_272_0 + 0.2509803921568627 W1_273_0
   + 0.3137254901960784 W1_297_0 + 0.9372549019607843 W1_298_0
   + 0.9882352941176471 W1_299_0 + 0.9882352941176471 W1_300_0
   + 0.1411764705882353 W1_301_0 + 0.1254901960784314 W1_324_0
   + 0.9450980392156862 W1_325_0 + 0.9882352941176471 W1_326_0
   + 0.8784313725490196 W1_327_0 + 0.2274509803921569 W1_328_0
   + 0.0196078431372549 W1_329_0 + 0.2470588235294118 W1_351_0
   + 0.7333333333333333 W1_352_0 + 0.9882352941176471 W1_353_0
   + 0.9882352941176471 W1_354_0 + 0.5019607843137255 W1_355_0
   + 0.207843137254902 W1_376_0 + 0.4745098039215686 W1_377_0
   + 0.9490196078431372 W1_378_0 + 0.9686274509803922 W1_379_0
   + 0.9882352941176471 W1_380_0 + 0.9882352941176471 W1_381_0
   + 0.7607843137254902 W1_382_0 + 0.0117647058823529 W1_383_0
   + 0.8549019607843137 W1_403_0 + 0.9921568627450981 W1_404_0
   + 0.9921568627450981 W1_405_0 + W1_406_0 + 0.9882352941176471 W1_407_0
   + 0.9529411764705882 W1_408_0 + 0.9921568627450981 W1_409_0
   + 0.8784313725490196 W1_410_0 + 0.1254901960784314 W1_411_0
   + 0.7686274509803922 W1_431_0 + 0.9803921568627451 W1_432_0
   + 0.8980392156862745 W1_433_0 + 0.8745098039215686 W1_434_0
   + 0.3843137254901961 W1_435_0 + 0.1450980392156863 W1_436_0
   + 0.9882352941176471 W1_437_0 + 0.9882352941176471 W1_438_0
   + 0.2352941176470588 W1_439_0 + 0.3411764705882353 W1_460_0
   + 0.0196078431372549 W1_461_0 + 0.1450980392156863 W1_464_0
   + 0.9882352941176471 W1_465_0 + 0.9882352941176471 W1_466_0
   + 0.2352941176470588 W1_467_0 + 0.1450980392156863 W1_492_0
   + 0.9882352941176471 W1_493_0 + 0.9882352941176471 W1_494_0
   + 0.2352941176470588 W1_495_0 + 0.2588235294117647 W1_520_0
   + 0.9882352941176471 W1_521_0 + 0.9882352941176471 W1_522_0
   + 0.2352941176470588 W1_523_0 + 0.0274509803921569 W1_537_0
   + 0.2862745098039216 W1_538_0 + 0.2862745098039216 W1_539_0
   + 0.0823529411764706 W1_540_0 + 0.0274509803921569 W1_547_0
   + 0.7215686274509804 W1_548_0 + 0.9882352941176471 W1_549_0
   + 0.807843137254902 W1_550_0 + 0.0549019607843137 W1_551_0
   + 0.4823529411764706 W1_565_0 + 0.9882352941176471 W1_566_0
   + 0.9882352941176471 W1_567_0 + 0.8549019607843137 W1_568_0
   + 0.6666666666666666 W1_569_0 + 0.0627450980392157 W1_570_0
   + 0.4823529411764706 W1_575_0 + 0.9882352941176471 W1_576_0
   + 0.9882352941176471 W1_577_0 + 0.592156862745098 W1_578_0
   + 0.5686274509803921 W1_593_0 + 0.9882352941176471 W1_594_0
   + 0.9882352941176471 W1_595_0 + 0.9882352941176471 W1_596_0
   + 0.9882352941176471 W1_597_0 + 0.1882352941176471 W1_598_0
   + 0.3294117647058823 W1_599_0 + 0.5803921568627451 W1_600_0
   + 0.8509803921568627 W1_601_0 + 0.8549019607843137 W1_602_0
   + 0.9294117647058824 W1_603_0 + 0.9882352941176471 W1_604_0
   + 0.6431372549019608 W1_605_0 + 0.0392156862745098 W1_606_0
   + 0.3254901960784314 W1_621_0 + 0.8274509803921568 W1_622_0
   + 0.9882352941176471 W1_623_0 + 0.9882352941176471 W1_624_0
   + 0.9882352941176471 W1_625_0 + 0.9137254901960784 W1_626_0
   + 0.9764705882352941 W1_627_0 + 0.9882352941176471 W1_628_0
   + 0.9882352941176471 W1_629_0 + 0.9921568627450981 W1_630_0
   + 0.9490196078431372 W1_631_0 + 0.4980392156862745 W1_632_0
   + 0.0313725490196078 W1_633_0 + 0.0980392156862745 W1_650_0
   + 0.5137254901960784 W1_651_0 + 0.8549019607843137 W1_652_0
   + 0.9882352941176471 W1_653_0 + 0.9882352941176471 W1_654_0
   + 0.9882352941176471 W1_655_0 + 0.9882352941176471 W1_656_0
   + 0.7607843137254902 W1_657_0 + 0.2705882352941176 W1_658_0
   + 0.0392156862745098 W1_659_0 - 20 sign_inner_11_0 <= 0
 sign_1_pkj_pos_11_1: W1_0_1 + 0.0274509803921569 W1_127_1
   + 0.3450980392156863 W1_128_1 + 0.611764705882353 W1_129_1
   + 0.9921568627450981 W1_130_1 + 0.6313725490196078 W1_131_1
   + 0.1372549019607843 W1_132_1 + 0.00784313725490196 W1_133_1
   + 0.0470588235294118 W1_153_1 + 0.3450980392156863 W1_154_1
   + 0.807843137254902 W1_155_1 + 0.9882352941176471 W1_156_1
   + 0.9882352941176471 W1_157_1 + 0.9882352941176471 W1_158_1
   + 0.9882352941176471 W1_159_1 + 0.9882352941176471 W1_160_1
   + 0.1411764705882353 W1_161_1 + 0.1254901960784314 W1_179_1
   + 0.5725490196078431 W1_180_1 + 0.792156862745098 W1_181_1
   + 0.9921568627450981 W1_182_1 + 0.9882352941176471 W1_183_1
   + 0.9019607843137255 W1_184_1 + 0.3764705882352941 W1_185_1
   + 0.3764705882352941 W1_186_1 + 0.8431372549019608 W1_187_1
   + 0.9882352941176471 W1_188_1 + 0.4352941176470588 W1_189_1
   + 0.2235294117647059 W1_206_1 + 0.9450980392156862 W1_207_1
   + 0.9882352941176471 W1_208_1 + 0.9882352941176471 W1_209_1
   + 0.9921568627450981 W1_210_1 + 0.8352941176470589 W1_211_1
   + 0.2823529411764706 W1_212_1 + 0.7568627450980392 W1_215_1
   + 0.9882352941176471 W1_216_1 + 0.8627450980392157 W1_217_1
   + 0.0627450980392157 W1_218_1 + 0.3333333333333333 W1_234_1
   + 0.9882352941176471 W1_235_1 + 0.9882352941176471 W1_236_1
   + 0.8745098039215686 W1_237_1 + 0.5058823529411764 W1_238_1
   + 0.1215686274509804 W1_239_1 + 0.0588235294117647 W1_242_1
   + 0.8117647058823529 W1_243_1 + 0.9882352941176471 W1_244_1
   + 0.7176470588235294 W1_245_1 + 0.0274509803921569 W1_246_1
   + 0.0784313725490196 W1_262_1 + 0.2352941176470588 W1_263_1
   + 0.2352941176470588 W1_264_1 + 0.1215686274509804 W1_265_1
   + 0.596078431372549 W1_270_1 + 0.9882352941176471 W1_271_1
   + 0.9882352941176471 W1_272_1 + 0.2509803921568627 W1_273_1
   + 0.3137254901960784 W1_297_1 + 0.9372549019607843 W1_298_1
   + 0.9882352941176471 W1_299_1 + 0.9882352941176471 W1_300_1
   + 0.1411764705882353 W1_301_1 + 0.1254901960784314 W1_324_1
   + 0.9450980392156862 W1_325_1 + 0.9882352941176471 W1_326_1
   + 0.8784313725490196 W1_327_1 + 0.2274509803921569 W1_328_1
   + 0.0196078431372549 W1_329_1 + 0.2470588235294118 W1_351_1
   + 0.7333333333333333 W1_352_1 + 0.9882352941176471 W1_353_1
   + 0.9882352941176471 W1_354_1 + 0.5019607843137255 W1_355_1
   + 0.207843137254902 W1_376_1 + 0.4745098039215686 W1_377_1
   + 0.9490196078431372 W1_378_1 + 0.9686274509803922 W1_379_1
   + 0.9882352941176471 W1_380_1 + 0.9882352941176471 W1_381_1
   + 0.7607843137254902 W1_382_1 + 0.0117647058823529 W1_383_1
   + 0.8549019607843137 W1_403_1 + 0.9921568627450981 W1_404_1
   + 0.9921568627450981 W1_405_1 + W1_406_1 + 0.9882352941176471 W1_407_1
   + 0.9529411764705882 W1_408_1 + 0.9921568627450981 W1_409_1
   + 0.8784313725490196 W1_410_1 + 0.1254901960784314 W1_411_1
   + 0.7686274509803922 W1_431_1 + 0.9803921568627451 W1_432_1
   + 0.8980392156862745 W1_433_1 + 0.8745098039215686 W1_434_1
   + 0.3843137254901961 W1_435_1 + 0.1450980392156863 W1_436_1
   + 0.9882352941176471 W1_437_1 + 0.9882352941176471 W1_438_1
   + 0.2352941176470588 W1_439_1 + 0.3411764705882353 W1_460_1
   + 0.0196078431372549 W1_461_1 + 0.1450980392156863 W1_464_1
   + 0.9882352941176471 W1_465_1 + 0.9882352941176471 W1_466_1
   + 0.2352941176470588 W1_467_1 + 0.1450980392156863 W1_492_1
   + 0.9882352941176471 W1_493_1 + 0.9882352941176471 W1_494_1
   + 0.2352941176470588 W1_495_1 + 0.2588235294117647 W1_520_1
   + 0.9882352941176471 W1_521_1 + 0.9882352941176471 W1_522_1
   + 0.2352941176470588 W1_523_1 + 0.0274509803921569 W1_537_1
   + 0.2862745098039216 W1_538_1 + 0.2862745098039216 W1_539_1
   + 0.0823529411764706 W1_540_1 + 0.0274509803921569 W1_547_1
   + 0.7215686274509804 W1_548_1 + 0.9882352941176471 W1_549_1
   + 0.807843137254902 W1_550_1 + 0.0549019607843137 W1_551_1
   + 0.4823529411764706 W1_565_1 + 0.9882352941176471 W1_566_1
   + 0.9882352941176471 W1_567_1 + 0.8549019607843137 W1_568_1
   + 0.6666666666666666 W1_569_1 + 0.0627450980392157 W1_570_1
   + 0.4823529411764706 W1_575_1 + 0.9882352941176471 W1_576_1
   + 0.9882352941176471 W1_577_1 + 0.592156862745098 W1_578_1
   + 0.5686274509803921 W1_593_1 + 0.9882352941176471 W1_594_1
   + 0.9882352941176471 W1_595_1 + 0.9882352941176471 W1_596_1
   + 0.9882352941176471 W1_597_1 + 0.1882352941176471 W1_598_1
   + 0.3294117647058823 W1_599_1 + 0.5803921568627451 W1_600_1
   + 0.8509803921568627 W1_601_1 + 0.8549019607843137 W1_602_1
   + 0.9294117647058824 W1_603_1 + 0.9882352941176471 W1_604_1
   + 0.6431372549019608 W1_605_1 + 0.0392156862745098 W1_606_1
   + 0.3254901960784314 W1_621_1 + 0.8274509803921568 W1_622_1
   + 0.9882352941176471 W1_623_1 + 0.9882352941176471 W1_624_1
   + 0.9882352941176471 W1_625_1 + 0.9137254901960784 W1_626_1
   + 0.9764705882352941 W1_627_1 + 0.9882352941176471 W1_628_1
   + 0.9882352941176471 W1_629_1 + 0.9921568627450981 W1_630_1
   + 0.9490196078431372 W1_631_1 + 0.4980392156862745 W1_632_1
   + 0.0313725490196078 W1_633_1 + 0.0980392156862745 W1_650_1
   + 0.5137254901960784 W1_651_1 + 0.8549019607843137 W1_652_1
   + 0.9882352941176471 W1_653_1 + 0.9882352941176471 W1_654_1
   + 0.9882352941176471 W1_655_1 + 0.9882352941176471 W1_656_1
   + 0.7607843137254902 W1_657_1 + 0.2705882352941176 W1_658_1
   + 0.0392156862745098 W1_659_1 - 20 sign_inner_11_1 >= -19.999
 sign_0_pkj_neg_11_1: W1_0_1 + 0.0274509803921569 W1_127_1
   + 0.3450980392156863 W1_128_1 + 0.611764705882353 W1_129_1
   + 0.9921568627450981 W1_130_1 + 0.6313725490196078 W1_131_1
   + 0.1372549019607843 W1_132_1 + 0.00784313725490196 W1_133_1
   + 0.0470588235294118 W1_153_1 + 0.3450980392156863 W1_154_1
   + 0.807843137254902 W1_155_1 + 0.9882352941176471 W1_156_1
   + 0.9882352941176471 W1_157_1 + 0.9882352941176471 W1_158_1
   + 0.9882352941176471 W1_159_1 + 0.9882352941176471 W1_160_1
   + 0.1411764705882353 W1_161_1 + 0.1254901960784314 W1_179_1
   + 0.5725490196078431 W1_180_1 + 0.792156862745098 W1_181_1
   + 0.9921568627450981 W1_182_1 + 0.9882352941176471 W1_183_1
   + 0.9019607843137255 W1_184_1 + 0.3764705882352941 W1_185_1
   + 0.3764705882352941 W1_186_1 + 0.8431372549019608 W1_187_1
   + 0.9882352941176471 W1_188_1 + 0.4352941176470588 W1_189_1
   + 0.2235294117647059 W1_206_1 + 0.9450980392156862 W1_207_1
   + 0.9882352941176471 W1_208_1 + 0.9882352941176471 W1_209_1
   + 0.9921568627450981 W1_210_1 + 0.8352941176470589 W1_211_1
   + 0.2823529411764706 W1_212_1 + 0.7568627450980392 W1_215_1
   + 0.9882352941176471 W1_216_1 + 0.8627450980392157 W1_217_1
   + 0.0627450980392157 W1_218_1 + 0.3333333333333333 W1_234_1
   + 0.9882352941176471 W1_235_1 + 0.9882352941176471 W1_236_1
   + 0.8745098039215686 W1_237_1 + 0.5058823529411764 W1_238_1
   + 0.1215686274509804 W1_239_1 + 0.0588235294117647 W1_242_1
   + 0.8117647058823529 W1_243_1 + 0.9882352941176471 W1_244_1
   + 0.7176470588235294 W1_245_1 + 0.0274509803921569 W1_246_1
   + 0.0784313725490196 W1_262_1 + 0.2352941176470588 W1_263_1
   + 0.2352941176470588 W1_264_1 + 0.1215686274509804 W1_265_1
   + 0.596078431372549 W1_270_1 + 0.9882352941176471 W1_271_1
   + 0.9882352941176471 W1_272_1 + 0.2509803921568627 W1_273_1
   + 0.3137254901960784 W1_297_1 + 0.9372549019607843 W1_298_1
   + 0.9882352941176471 W1_299_1 + 0.9882352941176471 W1_300_1
   + 0.1411764705882353 W1_301_1 + 0.1254901960784314 W1_324_1
   + 0.9450980392156862 W1_325_1 + 0.9882352941176471 W1_326_1
   + 0.8784313725490196 W1_327_1 + 0.2274509803921569 W1_328_1
   + 0.0196078431372549 W1_329_1 + 0.2470588235294118 W1_351_1
   + 0.7333333333333333 W1_352_1 + 0.9882352941176471 W1_353_1
   + 0.9882352941176471 W1_354_1 + 0.5019607843137255 W1_355_1
   + 0.207843137254902 W1_376_1 + 0.4745098039215686 W1_377_1
   + 0.9490196078431372 W1_378_1 + 0.9686274509803922 W1_379_1
   + 0.9882352941176471 W1_380_1 + 0.9882352941176471 W1_381_1
   + 0.7607843137254902 W1_382_1 + 0.0117647058823529 W1_383_1
   + 0.8549019607843137 W1_403_1 + 0.9921568627450981 W1_404_1
   + 0.9921568627450981 W1_405_1 + W1_406_1 + 0.9882352941176471 W1_407_1
   + 0.9529411764705882 W1_408_1 + 0.9921568627450981 W1_409_1
   + 0.8784313725490196 W1_410_1 + 0.1254901960784314 W1_411_1
   + 0.7686274509803922 W1_431_1 + 0.9803921568627451 W1_432_1
   + 0.8980392156862745 W1_433_1 + 0.8745098039215686 W1_434_1
   + 0.3843137254901961 W1_435_1 + 0.1450980392156863 W1_436_1
   + 0.9882352941176471 W1_437_1 + 0.9882352941176471 W1_438_1
   + 0.2352941176470588 W1_439_1 + 0.3411764705882353 W1_460_1
   + 0.0196078431372549 W1_461_1 + 0.1450980392156863 W1_464_1
   + 0.9882352941176471 W1_465_1 + 0.9882352941176471 W1_466_1
   + 0.2352941176470588 W1_467_1 + 0.1450980392156863 W1_492_1
   + 0.9882352941176471 W1_493_1 + 0.9882352941176471 W1_494_1
   + 0.2352941176470588 W1_495_1 + 0.2588235294117647 W1_520_1
   + 0.9882352941176471 W1_521_1 + 0.9882352941176471 W1_522_1
   + 0.2352941176470588 W1_523_1 + 0.0274509803921569 W1_537_1
   + 0.2862745098039216 W1_538_1 + 0.2862745098039216 W1_539_1
   + 0.0823529411764706 W1_540_1 + 0.0274509803921569 W1_547_1
   + 0.7215686274509804 W1_548_1 + 0.9882352941176471 W1_549_1
   + 0.807843137254902 W1_550_1 + 0.0549019607843137 W1_551_1
   + 0.4823529411764706 W1_565_1 + 0.9882352941176471 W1_566_1
   + 0.9882352941176471 W1_567_1 + 0.8549019607843137 W1_568_1
   + 0.6666666666666666 W1_569_1 + 0.0627450980392157 W1_570_1
   + 0.4823529411764706 W1_575_1 + 0.9882352941176471 W1_576_1
   + 0.9882352941176471 W1_577_1 + 0.592156862745098 W1_578_1
   + 0.5686274509803921 W1_593_1 + 0.9882352941176471 W1_594_1
   + 0.9882352941176471 W1_595_1 + 0.9882352941176471 W1_596_1
   + 0.9882352941176471 W1_597_1 + 0.1882352941176471 W1_598_1
   + 0.3294117647058823 W1_599_1 + 0.5803921568627451 W1_600_1
   + 0.8509803921568627 W1_601_1 + 0.8549019607843137 W1_602_1
   + 0.9294117647058824 W1_603_1 + 0.9882352941176471 W1_604_1
   + 0.6431372549019608 W1_605_1 + 0.0392156862745098 W1_606_1
   + 0.3254901960784314 W1_621_1 + 0.8274509803921568 W1_622_1
   + 0.9882352941176471 W1_623_1 + 0.9882352941176471 W1_624_1
   + 0.9882352941176471 W1_625_1 + 0.9137254901960784 W1_626_1
   + 0.9764705882352941 W1_627_1 + 0.9882352941176471 W1_628_1
   + 0.9882352941176471 W1_629_1 + 0.9921568627450981 W1_630_1
   + 0.9490196078431372 W1_631_1 + 0.4980392156862745 W1_632_1
   + 0.0313725490196078 W1_633_1 + 0.0980392156862745 W1_650_1
   + 0.5137254901960784 W1_651_1 + 0.8549019607843137 W1_652_1
   + 0.9882352941176471 W1_653_1 + 0.9882352941176471 W1_654_1
   + 0.9882352941176471 W1_655_1 + 0.9882352941176471 W1_656_1
   + 0.7607843137254902 W1_657_1 + 0.2705882352941176 W1_658_1
   + 0.0392156862745098 W1_659_1 - 20 sign_inner_11_1 <= 0
 sign_1_pkj_pos_12_0: W1_0_0 + 0.396078431372549 W1_123_0
   + 0.8705882352941177 W1_124_0 + 0.9921568627450981 W1_125_0
   + 0.9921568627450981 W1_126_0 + 0.7529411764705882 W1_127_0
   + 0.4431372549019608 W1_128_0 + 0.3450980392156863 W1_129_0
   + 0.0392156862745098 W1_148_0 + 0.3333333333333333 W1_149_0
   + 0.8862745098039215 W1_150_0 + 0.9764705882352941 W1_151_0
   + 0.9882352941176471 W1_152_0 + 0.9882352941176471 W1_153_0
   + 0.9882352941176471 W1_154_0 + 0.9921568627450981 W1_155_0
   + 0.9882352941176471 W1_156_0 + 0.9647058823529412 W1_157_0
   + 0.8196078431372549 W1_158_0 + 0.1490196078431373 W1_159_0
   + 0.0509803921568627 W1_175_0 + 0.611764705882353 W1_176_0
   + 0.9882352941176471 W1_177_0 + 0.9921568627450981 W1_178_0
   + 0.9137254901960784 W1_179_0 + 0.7647058823529411 W1_180_0
   + 0.7647058823529411 W1_181_0 + 0.7647058823529411 W1_182_0
   + 0.7686274509803922 W1_183_0 + 0.8392156862745098 W1_184_0
   + 0.9882352941176471 W1_185_0 + 0.9882352941176471 W1_186_0
   + 0.8666666666666667 W1_187_0 + 0.1254901960784314 W1_188_0
   + 0.2235294117647059 W1_203_0 + 0.9882352941176471 W1_204_0
   + 0.9882352941176471 W1_205_0 + 0.6352941176470588 W1_206_0
   + 0.2196078431372549 W1_207_0 + 0.1098039215686274 W1_212_0
   + 0.4745098039215686 W1_213_0 + 0.9882352941176471 W1_214_0
   + 0.9882352941176471 W1_215_0 + 0.8470588235294118 W1_216_0
   + 0.0705882352941176 W1_217_0 + 0.2235294117647059 W1_231_0
   + 0.9882352941176471 W1_232_0 + 0.6784313725490196 W1_233_0
   + 0.0980392156862745 W1_241_0 + 0.803921568627451 W1_242_0
   + 0.9882352941176471 W1_243_0 + 0.9921568627450981 W1_244_0
   + 0.1058823529411765 W1_245_0 + 0.2235294117647059 W1_259_0
   + 0.9921568627450981 W1_260_0 + 0.9921568627450981 W1_261_0
   + 0.3607843137254902 W1_270_0 + 0.9921568627450981 W1_271_0 + W1_272_0
   + 0.1058823529411765 W1_273_0 + 0.1490196078431373 W1_287_0
   + 0.8784313725490196 W1_288_0 + 0.9882352941176471 W1_289_0
   + 0.4941176470588236 W1_290_0 + 0.2 W1_297_0
   + 0.9529411764705882 W1_298_0 + 0.9882352941176471 W1_299_0
   + 0.9921568627450981 W1_300_0 + 0.1058823529411765 W1_301_0
   + 0.207843137254902 W1_316_0 + 0.7647058823529411 W1_317_0
   + 0.4313725490196079 W1_318_0 + 0.2 W1_324_0
   + 0.396078431372549 W1_325_0 + 0.9882352941176471 W1_326_0
   + 0.9882352941176471 W1_327_0 + 0.7450980392156863 W1_328_0
   + 0.0470588235294118 W1_329_0 + 0.0274509803921569 W1_348_0
   + 0.1137254901960784 W1_349_0 + 0.1137254901960784 W1_350_0
   + 0.3607843137254902 W1_351_0 + 0.9529411764705882 W1_352_0
   + 0.9882352941176471 W1_353_0 + 0.9882352941176471 W1_354_0
   + 0.9882352941176471 W1_355_0 + 0.9921568627450981 W1_356_0
   + 0.6941176470588235 W1_357_0 + 0.207843137254902 W1_358_0
   + 0.4941176470588236 W1_375_0 + 0.6470588235294118 W1_376_0
   + 0.9882352941176471 W1_377_0 + 0.9882352941176471 W1_378_0
   + 0.9921568627450981 W1_379_0 + 0.9882352941176471 W1_380_0
   + 0.9882352941176471 W1_381_0 + 0.9882352941176471 W1_382_0
   + 0.9882352941176471 W1_383_0 + 0.9921568627450981 W1_384_0
   + 0.9882352941176471 W1_385_0 + 0.7647058823529411 W1_386_0
   + 0.8862745098039215 W1_403_0 + 0.9921568627450981 W1_404_0
   + 0.9921568627450981 W1_405_0 + 0.9921568627450981 W1_406_0 + W1_407_0
   + 0.8431372549019608 W1_408_0 + 0.5490196078431373 W1_409_0
   + 0.5490196078431373 W1_410_0 + 0.5490196078431373 W1_411_0
   + 0.7529411764705882 W1_412_0 + 0.9921568627450981 W1_413_0
   + 0.9921568627450981 W1_414_0 + 0.5725490196078431 W1_415_0
   + 0.6980392156862745 W1_431_0 + 0.9882352941176471 W1_432_0
   + 0.9490196078431372 W1_433_0 + 0.6549019607843137 W1_434_0
   + 0.4156862745098039 W1_435_0 + 0.0705882352941176 W1_436_0
   + 0.0470588235294118 W1_440_0 + 0.8941176470588236 W1_441_0
   + 0.9882352941176471 W1_442_0 + 0.8745098039215686 W1_443_0
   + 0.0745098039215686 W1_459_0 + 0.2156862745098039 W1_460_0
   + 0.1921568627450981 W1_461_0 + 0.8823529411764706 W1_469_0
   + 0.9882352941176471 W1_470_0 + 0.8745098039215686 W1_471_0
   + 0.0627450980392157 W1_495_0 + 0.3607843137254902 W1_496_0
   + 0.9529411764705882 W1_497_0 + 0.9882352941176471 W1_498_0
   + 0.5058823529411764 W1_499_0 + 0.0627450980392157 W1_522_0
   + 0.796078431372549 W1_523_0 + 0.9921568627450981 W1_524_0
   + 0.9882352941176471 W1_525_0 + 0.8627450980392157 W1_526_0
   + 0.1450980392156863 W1_527_0 + 0.1019607843137255 W1_549_0
   + 0.8117647058823529 W1_550_0 + 0.9921568627450981 W1_551_0 + W1_552_0
   + 0.8431372549019608 W1_553_0 + 0.1215686274509804 W1_554_0
   + 0.396078431372549 W1_565_0 + 0.8823529411764706 W1_566_0
   + 0.6862745098039216 W1_567_0 + 0.0392156862745098 W1_573_0
   + 0.3333333333333333 W1_574_0 + 0.5764705882352941 W1_575_0
   + 0.8823529411764706 W1_576_0 + 0.9058823529411765 W1_577_0
   + 0.9882352941176471 W1_578_0 + 0.9882352941176471 W1_579_0
   + 0.6588235294117647 W1_580_0 + 0.1294117647058824 W1_581_0
   + 0.4431372549019608 W1_593_0 + 0.9882352941176471 W1_594_0
   + 0.8156862745098039 W1_595_0 + 0.2235294117647059 W1_596_0
   + 0.2235294117647059 W1_597_0 + 0.2235294117647059 W1_598_0
   + 0.2235294117647059 W1_599_0 + 0.6509803921568628 W1_600_0
   + 0.796078431372549 W1_601_0 + 0.9882352941176471 W1_602_0
   + 0.9921568627450981 W1_603_0 + 0.9882352941176471 W1_604_0
   + 0.9372549019607843 W1_605_0 + 0.7647058823529411 W1_606_0
   + 0.4627450980392157 W1_607_0 + 0.1490196078431373 W1_621_0
   + 0.9176470588235294 W1_622_0 + 0.9882352941176471 W1_623_0
   + 0.9882352941176471 W1_624_0 + 0.9882352941176471 W1_625_0
   + 0.9921568627450981 W1_626_0 + 0.9882352941176471 W1_627_0
   + 0.9882352941176471 W1_628_0 + 0.9882352941176471 W1_629_0
   + 0.9882352941176471 W1_630_0 + 0.8823529411764706 W1_631_0
   + 0.6901960784313725 W1_632_0 + 0.2549019607843137 W1_633_0
   + 0.392156862745098 W1_650_0 + 0.8666666666666667 W1_651_0
   + 0.9882352941176471 W1_652_0 + 0.9882352941176471 W1_653_0
   + 0.9921568627450981 W1_654_0 + 0.4980392156862745 W1_655_0
   + 0.4392156862745098 W1_656_0 + 0.4392156862745098 W1_657_0
   + 0.4392156862745098 W1_658_0 - 20 sign_inner_12_0 >= -19.999
 sign_0_pkj_neg_12_0: W1_0_0 + 0.396078431372549 W1_123_0
   + 0.8705882352941177 W1_124_0 + 0.9921568627450981 W1_125_0
   + 0.9921568627450981 W1_126_0 + 0.7529411764705882 W1_127_0
   + 0.4431372549019608 W1_128_0 + 0.3450980392156863 W1_129_0
   + 0.0392156862745098 W1_148_0 + 0.3333333333333333 W1_149_0
   + 0.8862745098039215 W1_150_0 + 0.9764705882352941 W1_151_0
   + 0.9882352941176471 W1_152_0 + 0.9882352941176471 W1_153_0
   + 0.9882352941176471 W1_154_0 + 0.9921568627450981 W1_155_0
   + 0.9882352941176471 W1_156_0 + 0.9647058823529412 W1_157_0
   + 0.8196078431372549 W1_158_0 + 0.1490196078431373 W1_159_0
   + 0.0509803921568627 W1_175_0 + 0.611764705882353 W1_176_0
   + 0.9882352941176471 W1_177_0 + 0.9921568627450981 W1_178_0
   + 0.9137254901960784 W1_179_0 + 0.7647058823529411 W1_180_0
   + 0.7647058823529411 W1_181_0 + 0.7647058823529411 W1_182_0
   + 0.7686274509803922 W1_183_0 + 0.8392156862745098 W1_184_0
   + 0.9882352941176471 W1_185_0 + 0.9882352941176471 W1_186_0
   + 0.8666666666666667 W1_187_0 + 0.1254901960784314 W1_188_0
   + 0.2235294117647059 W1_203_0 + 0.9882352941176471 W1_204_0
   + 0.9882352941176471 W1_205_0 + 0.6352941176470588 W1_206_0
   + 0.2196078431372549 W1_207_0 + 0.1098039215686274 W1_212_0
   + 0.4745098039215686 W1_213_0 + 0.9882352941176471 W1_214_0
   + 0.9882352941176471 W1_215_0 + 0.8470588235294118 W1_216_0
   + 0.0705882352941176 W1_217_0 + 0.2235294117647059 W1_231_0
   + 0.9882352941176471 W1_232_0 + 0.6784313725490196 W1_233_0
   + 0.0980392156862745 W1_241_0 + 0.803921568627451 W1_242_0
   + 0.9882352941176471 W1_243_0 + 0.9921568627450981 W1_244_0
   + 0.1058823529411765 W1_245_0 + 0.2235294117647059 W1_259_0
   + 0.9921568627450981 W1_260_0 + 0.9921568627450981 W1_261_0
   + 0.3607843137254902 W1_270_0 + 0.9921568627450981 W1_271_0 + W1_272_0
   + 0.1058823529411765 W1_273_0 + 0.1490196078431373 W1_287_0
   + 0.8784313725490196 W1_288_0 + 0.9882352941176471 W1_289_0
   + 0.4941176470588236 W1_290_0 + 0.2 W1_297_0
   + 0.9529411764705882 W1_298_0 + 0.9882352941176471 W1_299_0
   + 0.9921568627450981 W1_300_0 + 0.1058823529411765 W1_301_0
   + 0.207843137254902 W1_316_0 + 0.7647058823529411 W1_317_0
   + 0.4313725490196079 W1_318_0 + 0.2 W1_324_0
   + 0.396078431372549 W1_325_0 + 0.9882352941176471 W1_326_0
   + 0.9882352941176471 W1_327_0 + 0.7450980392156863 W1_328_0
   + 0.0470588235294118 W1_329_0 + 0.0274509803921569 W1_348_0
   + 0.1137254901960784 W1_349_0 + 0.1137254901960784 W1_350_0
   + 0.3607843137254902 W1_351_0 + 0.9529411764705882 W1_352_0
   + 0.9882352941176471 W1_353_0 + 0.9882352941176471 W1_354_0
   + 0.9882352941176471 W1_355_0 + 0.9921568627450981 W1_356_0
   + 0.6941176470588235 W1_357_0 + 0.207843137254902 W1_358_0
   + 0.4941176470588236 W1_375_0 + 0.6470588235294118 W1_376_0
   + 0.9882352941176471 W1_377_0 + 0.9882352941176471 W1_378_0
   + 0.9921568627450981 W1_379_0 + 0.9882352941176471 W1_380_0
   + 0.9882352941176471 W1_381_0 + 0.9882352941176471 W1_382_0
   + 0.9882352941176471 W1_383_0 + 0.9921568627450981 W1_384_0
   + 0.9882352941176471 W1_385_0 + 0.7647058823529411 W1_386_0
   + 0.8862745098039215 W1_403_0 + 0.9921568627450981 W1_404_0
   + 0.9921568627450981 W1_405_0 + 0.9921568627450981 W1_406_0 + W1_407_0
   + 0.8431372549019608 W1_408_0 + 0.5490196078431373 W1_409_0
   + 0.5490196078431373 W1_410_0 + 0.5490196078431373 W1_411_0
   + 0.7529411764705882 W1_412_0 + 0.9921568627450981 W1_413_0
   + 0.9921568627450981 W1_414_0 + 0.5725490196078431 W1_415_0
   + 0.6980392156862745 W1_431_0 + 0.9882352941176471 W1_432_0
   + 0.9490196078431372 W1_433_0 + 0.6549019607843137 W1_434_0
   + 0.4156862745098039 W1_435_0 + 0.0705882352941176 W1_436_0
   + 0.0470588235294118 W1_440_0 + 0.8941176470588236 W1_441_0
   + 0.9882352941176471 W1_442_0 + 0.8745098039215686 W1_443_0
   + 0.0745098039215686 W1_459_0 + 0.2156862745098039 W1_460_0
   + 0.1921568627450981 W1_461_0 + 0.8823529411764706 W1_469_0
   + 0.9882352941176471 W1_470_0 + 0.8745098039215686 W1_471_0
   + 0.0627450980392157 W1_495_0 + 0.3607843137254902 W1_496_0
   + 0.9529411764705882 W1_497_0 + 0.9882352941176471 W1_498_0
   + 0.5058823529411764 W1_499_0 + 0.0627450980392157 W1_522_0
   + 0.796078431372549 W1_523_0 + 0.9921568627450981 W1_524_0
   + 0.9882352941176471 W1_525_0 + 0.8627450980392157 W1_526_0
   + 0.1450980392156863 W1_527_0 + 0.1019607843137255 W1_549_0
   + 0.8117647058823529 W1_550_0 + 0.9921568627450981 W1_551_0 + W1_552_0
   + 0.8431372549019608 W1_553_0 + 0.1215686274509804 W1_554_0
   + 0.396078431372549 W1_565_0 + 0.8823529411764706 W1_566_0
   + 0.6862745098039216 W1_567_0 + 0.0392156862745098 W1_573_0
   + 0.3333333333333333 W1_574_0 + 0.5764705882352941 W1_575_0
   + 0.8823529411764706 W1_576_0 + 0.9058823529411765 W1_577_0
   + 0.9882352941176471 W1_578_0 + 0.9882352941176471 W1_579_0
   + 0.6588235294117647 W1_580_0 + 0.1294117647058824 W1_581_0
   + 0.4431372549019608 W1_593_0 + 0.9882352941176471 W1_594_0
   + 0.8156862745098039 W1_595_0 + 0.2235294117647059 W1_596_0
   + 0.2235294117647059 W1_597_0 + 0.2235294117647059 W1_598_0
   + 0.2235294117647059 W1_599_0 + 0.6509803921568628 W1_600_0
   + 0.796078431372549 W1_601_0 + 0.9882352941176471 W1_602_0
   + 0.9921568627450981 W1_603_0 + 0.9882352941176471 W1_604_0
   + 0.9372549019607843 W1_605_0 + 0.7647058823529411 W1_606_0
   + 0.4627450980392157 W1_607_0 + 0.1490196078431373 W1_621_0
   + 0.9176470588235294 W1_622_0 + 0.9882352941176471 W1_623_0
   + 0.9882352941176471 W1_624_0 + 0.9882352941176471 W1_625_0
   + 0.9921568627450981 W1_626_0 + 0.9882352941176471 W1_627_0
   + 0.9882352941176471 W1_628_0 + 0.9882352941176471 W1_629_0
   + 0.9882352941176471 W1_630_0 + 0.8823529411764706 W1_631_0
   + 0.6901960784313725 W1_632_0 + 0.2549019607843137 W1_633_0
   + 0.392156862745098 W1_650_0 + 0.8666666666666667 W1_651_0
   + 0.9882352941176471 W1_652_0 + 0.9882352941176471 W1_653_0
   + 0.9921568627450981 W1_654_0 + 0.4980392156862745 W1_655_0
   + 0.4392156862745098 W1_656_0 + 0.4392156862745098 W1_657_0
   + 0.4392156862745098 W1_658_0 - 20 sign_inner_12_0 <= 0
 sign_1_pkj_pos_12_1: W1_0_1 + 0.396078431372549 W1_123_1
   + 0.8705882352941177 W1_124_1 + 0.9921568627450981 W1_125_1
   + 0.9921568627450981 W1_126_1 + 0.7529411764705882 W1_127_1
   + 0.4431372549019608 W1_128_1 + 0.3450980392156863 W1_129_1
   + 0.0392156862745098 W1_148_1 + 0.3333333333333333 W1_149_1
   + 0.8862745098039215 W1_150_1 + 0.9764705882352941 W1_151_1
   + 0.9882352941176471 W1_152_1 + 0.9882352941176471 W1_153_1
   + 0.9882352941176471 W1_154_1 + 0.9921568627450981 W1_155_1
   + 0.9882352941176471 W1_156_1 + 0.9647058823529412 W1_157_1
   + 0.8196078431372549 W1_158_1 + 0.1490196078431373 W1_159_1
   + 0.0509803921568627 W1_175_1 + 0.611764705882353 W1_176_1
   + 0.9882352941176471 W1_177_1 + 0.9921568627450981 W1_178_1
   + 0.9137254901960784 W1_179_1 + 0.7647058823529411 W1_180_1
   + 0.7647058823529411 W1_181_1 + 0.7647058823529411 W1_182_1
   + 0.7686274509803922 W1_183_1 + 0.8392156862745098 W1_184_1
   + 0.9882352941176471 W1_185_1 + 0.9882352941176471 W1_186_1
   + 0.8666666666666667 W1_187_1 + 0.1254901960784314 W1_188_1
   + 0.2235294117647059 W1_203_1 + 0.9882352941176471 W1_204_1
   + 0.9882352941176471 W1_205_1 + 0.6352941176470588 W1_206_1
   + 0.2196078431372549 W1_207_1 + 0.1098039215686274 W1_212_1
   + 0.4745098039215686 W1_213_1 + 0.9882352941176471 W1_214_1
   + 0.9882352941176471 W1_215_1 + 0.8470588235294118 W1_216_1
   + 0.0705882352941176 W1_217_1 + 0.2235294117647059 W1_231_1
   + 0.9882352941176471 W1_232_1 + 0.6784313725490196 W1_233_1
   + 0.0980392156862745 W1_241_1 + 0.803921568627451 W1_242_1
   + 0.9882352941176471 W1_243_1 + 0.9921568627450981 W1_244_1
   + 0.1058823529411765 W1_245_1 + 0.2235294117647059 W1_259_1
   + 0.9921568627450981 W1_260_1 + 0.9921568627450981 W1_261_1
   + 0.3607843137254902 W1_270_1 + 0.9921568627450981 W1_271_1 + W1_272_1
   + 0.1058823529411765 W1_273_1 + 0.1490196078431373 W1_287_1
   + 0.8784313725490196 W1_288_1 + 0.9882352941176471 W1_289_1
   + 0.4941176470588236 W1_290_1 + 0.2 W1_297_1
   + 0.9529411764705882 W1_298_1 + 0.9882352941176471 W1_299_1
   + 0.9921568627450981 W1_300_1 + 0.1058823529411765 W1_301_1
   + 0.207843137254902 W1_316_1 + 0.7647058823529411 W1_317_1
   + 0.4313725490196079 W1_318_1 + 0.2 W1_324_1
   + 0.396078431372549 W1_325_1 + 0.9882352941176471 W1_326_1
   + 0.9882352941176471 W1_327_1 + 0.7450980392156863 W1_328_1
   + 0.0470588235294118 W1_329_1 + 0.0274509803921569 W1_348_1
   + 0.1137254901960784 W1_349_1 + 0.1137254901960784 W1_350_1
   + 0.3607843137254902 W1_351_1 + 0.9529411764705882 W1_352_1
   + 0.9882352941176471 W1_353_1 + 0.9882352941176471 W1_354_1
   + 0.9882352941176471 W1_355_1 + 0.9921568627450981 W1_356_1
   + 0.6941176470588235 W1_357_1 + 0.207843137254902 W1_358_1
   + 0.4941176470588236 W1_375_1 + 0.6470588235294118 W1_376_1
   + 0.9882352941176471 W1_377_1 + 0.9882352941176471 W1_378_1
   + 0.9921568627450981 W1_379_1 + 0.9882352941176471 W1_380_1
   + 0.9882352941176471 W1_381_1 + 0.9882352941176471 W1_382_1
   + 0.9882352941176471 W1_383_1 + 0.9921568627450981 W1_384_1
   + 0.9882352941176471 W1_385_1 + 0.7647058823529411 W1_386_1
   + 0.8862745098039215 W1_403_1 + 0.9921568627450981 W1_404_1
   + 0.9921568627450981 W1_405_1 + 0.9921568627450981 W1_406_1 + W1_407_1
   + 0.8431372549019608 W1_408_1 + 0.5490196078431373 W1_409_1
   + 0.5490196078431373 W1_410_1 + 0.5490196078431373 W1_411_1
   + 0.7529411764705882 W1_412_1 + 0.9921568627450981 W1_413_1
   + 0.9921568627450981 W1_414_1 + 0.5725490196078431 W1_415_1
   + 0.6980392156862745 W1_431_1 + 0.9882352941176471 W1_432_1
   + 0.9490196078431372 W1_433_1 + 0.6549019607843137 W1_434_1
   + 0.4156862745098039 W1_435_1 + 0.0705882352941176 W1_436_1
   + 0.0470588235294118 W1_440_1 + 0.8941176470588236 W1_441_1
   + 0.9882352941176471 W1_442_1 + 0.8745098039215686 W1_443_1
   + 0.0745098039215686 W1_459_1 + 0.2156862745098039 W1_460_1
   + 0.1921568627450981 W1_461_1 + 0.8823529411764706 W1_469_1
   + 0.9882352941176471 W1_470_1 + 0.8745098039215686 W1_471_1
   + 0.0627450980392157 W1_495_1 + 0.3607843137254902 W1_496_1
   + 0.9529411764705882 W1_497_1 + 0.9882352941176471 W1_498_1
   + 0.5058823529411764 W1_499_1 + 0.0627450980392157 W1_522_1
   + 0.796078431372549 W1_523_1 + 0.9921568627450981 W1_524_1
   + 0.9882352941176471 W1_525_1 + 0.8627450980392157 W1_526_1
   + 0.1450980392156863 W1_527_1 + 0.1019607843137255 W1_549_1
   + 0.8117647058823529 W1_550_1 + 0.9921568627450981 W1_551_1 + W1_552_1
   + 0.8431372549019608 W1_553_1 + 0.1215686274509804 W1_554_1
   + 0.396078431372549 W1_565_1 + 0.8823529411764706 W1_566_1
   + 0.6862745098039216 W1_567_1 + 0.0392156862745098 W1_573_1
   + 0.3333333333333333 W1_574_1 + 0.5764705882352941 W1_575_1
   + 0.8823529411764706 W1_576_1 + 0.9058823529411765 W1_577_1
   + 0.9882352941176471 W1_578_1 + 0.9882352941176471 W1_579_1
   + 0.6588235294117647 W1_580_1 + 0.1294117647058824 W1_581_1
   + 0.4431372549019608 W1_593_1 + 0.9882352941176471 W1_594_1
   + 0.8156862745098039 W1_595_1 + 0.2235294117647059 W1_596_1
   + 0.2235294117647059 W1_597_1 + 0.2235294117647059 W1_598_1
   + 0.2235294117647059 W1_599_1 + 0.6509803921568628 W1_600_1
   + 0.796078431372549 W1_601_1 + 0.9882352941176471 W1_602_1
   + 0.9921568627450981 W1_603_1 + 0.9882352941176471 W1_604_1
   + 0.9372549019607843 W1_605_1 + 0.7647058823529411 W1_606_1
   + 0.4627450980392157 W1_607_1 + 0.1490196078431373 W1_621_1
   + 0.9176470588235294 W1_622_1 + 0.9882352941176471 W1_623_1
   + 0.9882352941176471 W1_624_1 + 0.9882352941176471 W1_625_1
   + 0.9921568627450981 W1_626_1 + 0.9882352941176471 W1_627_1
   + 0.9882352941176471 W1_628_1 + 0.9882352941176471 W1_629_1
   + 0.9882352941176471 W1_630_1 + 0.8823529411764706 W1_631_1
   + 0.6901960784313725 W1_632_1 + 0.2549019607843137 W1_633_1
   + 0.392156862745098 W1_650_1 + 0.8666666666666667 W1_651_1
   + 0.9882352941176471 W1_652_1 + 0.9882352941176471 W1_653_1
   + 0.9921568627450981 W1_654_1 + 0.4980392156862745 W1_655_1
   + 0.4392156862745098 W1_656_1 + 0.4392156862745098 W1_657_1
   + 0.4392156862745098 W1_658_1 - 20 sign_inner_12_1 >= -19.999
 sign_0_pkj_neg_12_1: W1_0_1 + 0.396078431372549 W1_123_1
   + 0.8705882352941177 W1_124_1 + 0.9921568627450981 W1_125_1
   + 0.9921568627450981 W1_126_1 + 0.7529411764705882 W1_127_1
   + 0.4431372549019608 W1_128_1 + 0.3450980392156863 W1_129_1
   + 0.0392156862745098 W1_148_1 + 0.3333333333333333 W1_149_1
   + 0.8862745098039215 W1_150_1 + 0.9764705882352941 W1_151_1
   + 0.9882352941176471 W1_152_1 + 0.9882352941176471 W1_153_1
   + 0.9882352941176471 W1_154_1 + 0.9921568627450981 W1_155_1
   + 0.9882352941176471 W1_156_1 + 0.9647058823529412 W1_157_1
   + 0.8196078431372549 W1_158_1 + 0.1490196078431373 W1_159_1
   + 0.0509803921568627 W1_175_1 + 0.611764705882353 W1_176_1
   + 0.9882352941176471 W1_177_1 + 0.9921568627450981 W1_178_1
   + 0.9137254901960784 W1_179_1 + 0.7647058823529411 W1_180_1
   + 0.7647058823529411 W1_181_1 + 0.7647058823529411 W1_182_1
   + 0.7686274509803922 W1_183_1 + 0.8392156862745098 W1_184_1
   + 0.9882352941176471 W1_185_1 + 0.9882352941176471 W1_186_1
   + 0.8666666666666667 W1_187_1 + 0.1254901960784314 W1_188_1
   + 0.2235294117647059 W1_203_1 + 0.9882352941176471 W1_204_1
   + 0.9882352941176471 W1_205_1 + 0.6352941176470588 W1_206_1
   + 0.2196078431372549 W1_207_1 + 0.1098039215686274 W1_212_1
   + 0.4745098039215686 W1_213_1 + 0.9882352941176471 W1_214_1
   + 0.9882352941176471 W1_215_1 + 0.8470588235294118 W1_216_1
   + 0.0705882352941176 W1_217_1 + 0.2235294117647059 W1_231_1
   + 0.9882352941176471 W1_232_1 + 0.6784313725490196 W1_233_1
   + 0.0980392156862745 W1_241_1 + 0.803921568627451 W1_242_1
   + 0.9882352941176471 W1_243_1 + 0.9921568627450981 W1_244_1
   + 0.1058823529411765 W1_245_1 + 0.2235294117647059 W1_259_1
   + 0.9921568627450981 W1_260_1 + 0.9921568627450981 W1_261_1
   + 0.3607843137254902 W1_270_1 + 0.9921568627450981 W1_271_1 + W1_272_1
   + 0.1058823529411765 W1_273_1 + 0.1490196078431373 W1_287_1
   + 0.8784313725490196 W1_288_1 + 0.9882352941176471 W1_289_1
   + 0.4941176470588236 W1_290_1 + 0.2 W1_297_1
   + 0.9529411764705882 W1_298_1 + 0.9882352941176471 W1_299_1
   + 0.9921568627450981 W1_300_1 + 0.1058823529411765 W1_301_1
   + 0.207843137254902 W1_316_1 + 0.7647058823529411 W1_317_1
   + 0.4313725490196079 W1_318_1 + 0.2 W1_324_1
   + 0.396078431372549 W1_325_1 + 0.9882352941176471 W1_326_1
   + 0.9882352941176471 W1_327_1 + 0.7450980392156863 W1_328_1
   + 0.0470588235294118 W1_329_1 + 0.0274509803921569 W1_348_1
   + 0.1137254901960784 W1_349_1 + 0.1137254901960784 W1_350_1
   + 0.3607843137254902 W1_351_1 + 0.9529411764705882 W1_352_1
   + 0.9882352941176471 W1_353_1 + 0.9882352941176471 W1_354_1
   + 0.9882352941176471 W1_355_1 + 0.9921568627450981 W1_356_1
   + 0.6941176470588235 W1_357_1 + 0.207843137254902 W1_358_1
   + 0.4941176470588236 W1_375_1 + 0.6470588235294118 W1_376_1
   + 0.9882352941176471 W1_377_1 + 0.9882352941176471 W1_378_1
   + 0.9921568627450981 W1_379_1 + 0.9882352941176471 W1_380_1
   + 0.9882352941176471 W1_381_1 + 0.9882352941176471 W1_382_1
   + 0.9882352941176471 W1_383_1 + 0.9921568627450981 W1_384_1
   + 0.9882352941176471 W1_385_1 + 0.7647058823529411 W1_386_1
   + 0.8862745098039215 W1_403_1 + 0.9921568627450981 W1_404_1
   + 0.9921568627450981 W1_405_1 + 0.9921568627450981 W1_406_1 + W1_407_1
   + 0.8431372549019608 W1_408_1 + 0.5490196078431373 W1_409_1
   + 0.5490196078431373 W1_410_1 + 0.5490196078431373 W1_411_1
   + 0.7529411764705882 W1_412_1 + 0.9921568627450981 W1_413_1
   + 0.9921568627450981 W1_414_1 + 0.5725490196078431 W1_415_1
   + 0.6980392156862745 W1_431_1 + 0.9882352941176471 W1_432_1
   + 0.9490196078431372 W1_433_1 + 0.6549019607843137 W1_434_1
   + 0.4156862745098039 W1_435_1 + 0.0705882352941176 W1_436_1
   + 0.0470588235294118 W1_440_1 + 0.8941176470588236 W1_441_1
   + 0.9882352941176471 W1_442_1 + 0.8745098039215686 W1_443_1
   + 0.0745098039215686 W1_459_1 + 0.2156862745098039 W1_460_1
   + 0.1921568627450981 W1_461_1 + 0.8823529411764706 W1_469_1
   + 0.9882352941176471 W1_470_1 + 0.8745098039215686 W1_471_1
   + 0.0627450980392157 W1_495_1 + 0.3607843137254902 W1_496_1
   + 0.9529411764705882 W1_497_1 + 0.9882352941176471 W1_498_1
   + 0.5058823529411764 W1_499_1 + 0.0627450980392157 W1_522_1
   + 0.796078431372549 W1_523_1 + 0.9921568627450981 W1_524_1
   + 0.9882352941176471 W1_525_1 + 0.8627450980392157 W1_526_1
   + 0.1450980392156863 W1_527_1 + 0.1019607843137255 W1_549_1
   + 0.8117647058823529 W1_550_1 + 0.9921568627450981 W1_551_1 + W1_552_1
   + 0.8431372549019608 W1_553_1 + 0.1215686274509804 W1_554_1
   + 0.396078431372549 W1_565_1 + 0.8823529411764706 W1_566_1
   + 0.6862745098039216 W1_567_1 + 0.0392156862745098 W1_573_1
   + 0.3333333333333333 W1_574_1 + 0.5764705882352941 W1_575_1
   + 0.8823529411764706 W1_576_1 + 0.9058823529411765 W1_577_1
   + 0.9882352941176471 W1_578_1 + 0.9882352941176471 W1_579_1
   + 0.6588235294117647 W1_580_1 + 0.1294117647058824 W1_581_1
   + 0.4431372549019608 W1_593_1 + 0.9882352941176471 W1_594_1
   + 0.8156862745098039 W1_595_1 + 0.2235294117647059 W1_596_1
   + 0.2235294117647059 W1_597_1 + 0.2235294117647059 W1_598_1
   + 0.2235294117647059 W1_599_1 + 0.6509803921568628 W1_600_1
   + 0.796078431372549 W1_601_1 + 0.9882352941176471 W1_602_1
   + 0.9921568627450981 W1_603_1 + 0.9882352941176471 W1_604_1
   + 0.9372549019607843 W1_605_1 + 0.7647058823529411 W1_606_1
   + 0.4627450980392157 W1_607_1 + 0.1490196078431373 W1_621_1
   + 0.9176470588235294 W1_622_1 + 0.9882352941176471 W1_623_1
   + 0.9882352941176471 W1_624_1 + 0.9882352941176471 W1_625_1
   + 0.9921568627450981 W1_626_1 + 0.9882352941176471 W1_627_1
   + 0.9882352941176471 W1_628_1 + 0.9882352941176471 W1_629_1
   + 0.9882352941176471 W1_630_1 + 0.8823529411764706 W1_631_1
   + 0.6901960784313725 W1_632_1 + 0.2549019607843137 W1_633_1
   + 0.392156862745098 W1_650_1 + 0.8666666666666667 W1_651_1
   + 0.9882352941176471 W1_652_1 + 0.9882352941176471 W1_653_1
   + 0.9921568627450981 W1_654_1 + 0.4980392156862745 W1_655_1
   + 0.4392156862745098 W1_656_1 + 0.4392156862745098 W1_657_1
   + 0.4392156862745098 W1_658_1 - 20 sign_inner_12_1 <= 0
 sign_1_pkj_pos_13_0: W1_0_0 + 0.7529411764705882 W1_149_0
   + 0.996078431372549 W1_150_0 + 0.9019607843137255 W1_151_0
   + 0.996078431372549 W1_152_0 + 0.996078431372549 W1_153_0 + W1_154_0
   + 0.996078431372549 W1_155_0 + 0.996078431372549 W1_156_0
   + 0.996078431372549 W1_157_0 + 0.996078431372549 W1_158_0
   + 0.8313725490196079 W1_159_0 + 0.6823529411764706 W1_160_0
   + 0.1647058823529412 W1_161_0 + 0.2509803921568627 W1_177_0
   + 0.792156862745098 W1_178_0 + 0.8117647058823529 W1_179_0
   + 0.8117647058823529 W1_180_0 + 0.8117647058823529 W1_181_0
   + 0.8117647058823529 W1_182_0 + 0.8117647058823529 W1_183_0
   + 0.5450980392156862 W1_184_0 + 0.6196078431372549 W1_185_0
   + 0.5803921568627451 W1_186_0 + 0.9215686274509803 W1_187_0
   + 0.9921568627450981 W1_188_0 + 0.9294117647058824 W1_189_0
   + 0.2352941176470588 W1_190_0 + 0.2549019607843137 W1_214_0
   + 0.9294117647058824 W1_215_0 + 0.9921568627450981 W1_216_0
   + 0.9607843137254902 W1_217_0 + 0.2588235294117647 W1_218_0
   + 0.1176470588235294 W1_240_0 + 0.5607843137254902 W1_241_0
   + 0.9137254901960784 W1_242_0 + 0.9921568627450981 W1_243_0
   + 0.9882352941176471 W1_244_0 + 0.5411764705882353 W1_245_0
   + 0.0470588235294118 W1_265_0 + 0.2745098039215687 W1_266_0
   + 0.6 W1_267_0 + 0.8901960784313725 W1_268_0
   + 0.9921568627450981 W1_269_0 + 0.9921568627450981 W1_270_0
   + 0.9098039215686274 W1_271_0 + 0.4509803921568628 W1_272_0
   + 0.0313725490196078 W1_291_0 + 0.3098039215686275 W1_292_0
   + 0.7686274509803922 W1_293_0 + 0.996078431372549 W1_294_0
   + 0.9921568627450981 W1_295_0 + 0.9921568627450981 W1_296_0
   + 0.9019607843137255 W1_297_0 + 0.611764705882353 W1_298_0
   + 0.1137254901960784 W1_299_0 + 0.00392156862745098 W1_318_0
   + 0.6039215686274509 W1_319_0 + 0.9921568627450981 W1_320_0
   + 0.9921568627450981 W1_321_0 + 0.996078431372549 W1_322_0
   + 0.7529411764705882 W1_323_0 + 0.5019607843137255 W1_324_0
   + 0.1372549019607843 W1_325_0 + 0.0117647058823529 W1_346_0
   + 0.615686274509804 W1_347_0 + 0.9333333333333333 W1_348_0
   + 0.9921568627450981 W1_349_0 + 0.996078431372549 W1_350_0
   + 0.9921568627450981 W1_351_0 + 0.8352941176470589 W1_352_0
   + 0.7215686274509804 W1_353_0 + 0.5843137254901961 W1_354_0
   + 0.2588235294117647 W1_355_0 + 0.0470588235294118 W1_356_0
   + 0.1568627450980392 W1_376_0 + 0.4823529411764706 W1_377_0
   + 0.4823529411764706 W1_378_0 + 0.6235294117647059 W1_379_0
   + 0.7803921568627451 W1_380_0 + 0.6901960784313725 W1_381_0
   + 0.7803921568627451 W1_382_0 + 0.8980392156862745 W1_383_0
   + 0.8705882352941177 W1_384_0 + 0.3607843137254902 W1_385_0
   + 0.1215686274509804 W1_411_0 + 0.9568627450980393 W1_412_0
   + 0.9803921568627451 W1_413_0 + 0.6196078431372549 W1_414_0
   + 0.3058823529411765 W1_440_0 + 0.996078431372549 W1_441_0
   + 0.996078431372549 W1_442_0 + 0.207843137254902 W1_443_0
   + 0.3254901960784314 W1_468_0 + 0.9921568627450981 W1_469_0
   + 0.9921568627450981 W1_470_0 + 0.392156862745098 W1_471_0
   + 0.6313725490196078 W1_496_0 + 0.9921568627450981 W1_497_0
   + 0.9921568627450981 W1_498_0 + 0.1254901960784314 W1_499_0
   + 0.0313725490196078 W1_522_0 + 0.5529411764705883 W1_523_0
   + 0.9803921568627451 W1_524_0 + 0.9294117647058824 W1_525_0
   + 0.4117647058823529 W1_526_0 + 0.00392156862745098 W1_527_0
   + 0.0431372549019608 W1_548_0 + 0.3725490196078431 W1_549_0
   + 0.8627450980392157 W1_550_0 + 0.9921568627450981 W1_551_0
   + 0.9882352941176471 W1_552_0 + 0.3019607843137255 W1_553_0
   + 0.2 W1_574_0 + 0.596078431372549 W1_575_0
   + 0.8862745098039215 W1_576_0 + 0.9921568627450981 W1_577_0
   + 0.9921568627450981 W1_578_0 + 0.8588235294117647 W1_579_0
   + 0.2705882352941176 W1_580_0 + 0.0235294117647059 W1_596_0
   + 0.0313725490196078 W1_597_0 + 0.2235294117647059 W1_598_0
   + 0.3333333333333333 W1_599_0 + 0.5764705882352941 W1_600_0
   + 0.9098039215686274 W1_601_0 + 0.9764705882352941 W1_602_0
   + 0.9921568627450981 W1_603_0 + 0.9921568627450981 W1_604_0
   + 0.8509803921568627 W1_605_0 + 0.4352941176470588 W1_606_0
   + 0.0745098039215686 W1_607_0 + 0.1921568627450981 W1_622_0
   + 0.5294117647058824 W1_623_0 + 0.9254901960784314 W1_624_0
   + 0.9921568627450981 W1_625_0 + 0.9921568627450981 W1_626_0
   + 0.9921568627450981 W1_627_0 + 0.9921568627450981 W1_628_0
   + 0.9921568627450981 W1_629_0 + 0.984313725490196 W1_630_0
   + 0.8156862745098039 W1_631_0 + 0.4901960784313725 W1_632_0
   + 0.00784313725490196 W1_633_0 + 0.1137254901960784 W1_648_0
   + 0.5686274509803921 W1_649_0 + 0.9725490196078431 W1_650_0
   + 0.9921568627450981 W1_651_0 + 0.8313725490196079 W1_652_0
   + 0.8980392156862745 W1_653_0 + 0.9921568627450981 W1_654_0
   + 0.8392156862745098 W1_655_0 + 0.7803921568627451 W1_656_0
   + 0.4156862745098039 W1_657_0 + 0.1647058823529412 W1_658_0
   + 0.6666666666666666 W1_676_0 + 0.7529411764705882 W1_677_0
   + 0.6901960784313725 W1_678_0 + 0.196078431372549 W1_679_0
   + 0.0235294117647059 W1_680_0 + 0.0509803921568627 W1_681_0
   + 0.1803921568627451 W1_682_0 + 0.0274509803921569 W1_683_0
   - 20 sign_inner_13_0 >= -19.999
 sign_0_pkj_neg_13_0: W1_0_0 + 0.7529411764705882 W1_149_0
   + 0.996078431372549 W1_150_0 + 0.9019607843137255 W1_151_0
   + 0.996078431372549 W1_152_0 + 0.996078431372549 W1_153_0 + W1_154_0
   + 0.996078431372549 W1_155_0 + 0.996078431372549 W1_156_0
   + 0.996078431372549 W1_157_0 + 0.996078431372549 W1_158_0
   + 0.8313725490196079 W1_159_0 + 0.6823529411764706 W1_160_0
   + 0.1647058823529412 W1_161_0 + 0.2509803921568627 W1_177_0
   + 0.792156862745098 W1_178_0 + 0.8117647058823529 W1_179_0
   + 0.8117647058823529 W1_180_0 + 0.8117647058823529 W1_181_0
   + 0.8117647058823529 W1_182_0 + 0.8117647058823529 W1_183_0
   + 0.5450980392156862 W1_184_0 + 0.6196078431372549 W1_185_0
   + 0.5803921568627451 W1_186_0 + 0.9215686274509803 W1_187_0
   + 0.9921568627450981 W1_188_0 + 0.9294117647058824 W1_189_0
   + 0.2352941176470588 W1_190_0 + 0.2549019607843137 W1_214_0
   + 0.9294117647058824 W1_215_0 + 0.9921568627450981 W1_216_0
   + 0.9607843137254902 W1_217_0 + 0.2588235294117647 W1_218_0
   + 0.1176470588235294 W1_240_0 + 0.5607843137254902 W1_241_0
   + 0.9137254901960784 W1_242_0 + 0.9921568627450981 W1_243_0
   + 0.9882352941176471 W1_244_0 + 0.5411764705882353 W1_245_0
   + 0.0470588235294118 W1_265_0 + 0.2745098039215687 W1_266_0
   + 0.6 W1_267_0 + 0.8901960784313725 W1_268_0
   + 0.9921568627450981 W1_269_0 + 0.9921568627450981 W1_270_0
   + 0.9098039215686274 W1_271_0 + 0.4509803921568628 W1_272_0
   + 0.0313725490196078 W1_291_0 + 0.3098039215686275 W1_292_0
   + 0.7686274509803922 W1_293_0 + 0.996078431372549 W1_294_0
   + 0.9921568627450981 W1_295_0 + 0.9921568627450981 W1_296_0
   + 0.9019607843137255 W1_297_0 + 0.611764705882353 W1_298_0
   + 0.1137254901960784 W1_299_0 + 0.00392156862745098 W1_318_0
   + 0.6039215686274509 W1_319_0 + 0.9921568627450981 W1_320_0
   + 0.9921568627450981 W1_321_0 + 0.996078431372549 W1_322_0
   + 0.7529411764705882 W1_323_0 + 0.5019607843137255 W1_324_0
   + 0.1372549019607843 W1_325_0 + 0.0117647058823529 W1_346_0
   + 0.615686274509804 W1_347_0 + 0.9333333333333333 W1_348_0
   + 0.9921568627450981 W1_349_0 + 0.996078431372549 W1_350_0
   + 0.9921568627450981 W1_351_0 + 0.8352941176470589 W1_352_0
   + 0.7215686274509804 W1_353_0 + 0.5843137254901961 W1_354_0
   + 0.2588235294117647 W1_355_0 + 0.0470588235294118 W1_356_0
   + 0.1568627450980392 W1_376_0 + 0.4823529411764706 W1_377_0
   + 0.4823529411764706 W1_378_0 + 0.6235294117647059 W1_379_0
   + 0.7803921568627451 W1_380_0 + 0.6901960784313725 W1_381_0
   + 0.7803921568627451 W1_382_0 + 0.8980392156862745 W1_383_0
   + 0.8705882352941177 W1_384_0 + 0.3607843137254902 W1_385_0
   + 0.1215686274509804 W1_411_0 + 0.9568627450980393 W1_412_0
   + 0.9803921568627451 W1_413_0 + 0.6196078431372549 W1_414_0
   + 0.3058823529411765 W1_440_0 + 0.996078431372549 W1_441_0
   + 0.996078431372549 W1_442_0 + 0.207843137254902 W1_443_0
   + 0.3254901960784314 W1_468_0 + 0.9921568627450981 W1_469_0
   + 0.9921568627450981 W1_470_0 + 0.392156862745098 W1_471_0
   + 0.6313725490196078 W1_496_0 + 0.9921568627450981 W1_497_0
   + 0.9921568627450981 W1_498_0 + 0.1254901960784314 W1_499_0
   + 0.0313725490196078 W1_522_0 + 0.5529411764705883 W1_523_0
   + 0.9803921568627451 W1_524_0 + 0.9294117647058824 W1_525_0
   + 0.4117647058823529 W1_526_0 + 0.00392156862745098 W1_527_0
   + 0.0431372549019608 W1_548_0 + 0.3725490196078431 W1_549_0
   + 0.8627450980392157 W1_550_0 + 0.9921568627450981 W1_551_0
   + 0.9882352941176471 W1_552_0 + 0.3019607843137255 W1_553_0
   + 0.2 W1_574_0 + 0.596078431372549 W1_575_0
   + 0.8862745098039215 W1_576_0 + 0.9921568627450981 W1_577_0
   + 0.9921568627450981 W1_578_0 + 0.8588235294117647 W1_579_0
   + 0.2705882352941176 W1_580_0 + 0.0235294117647059 W1_596_0
   + 0.0313725490196078 W1_597_0 + 0.2235294117647059 W1_598_0
   + 0.3333333333333333 W1_599_0 + 0.5764705882352941 W1_600_0
   + 0.9098039215686274 W1_601_0 + 0.9764705882352941 W1_602_0
   + 0.9921568627450981 W1_603_0 + 0.9921568627450981 W1_604_0
   + 0.8509803921568627 W1_605_0 + 0.4352941176470588 W1_606_0
   + 0.0745098039215686 W1_607_0 + 0.1921568627450981 W1_622_0
   + 0.5294117647058824 W1_623_0 + 0.9254901960784314 W1_624_0
   + 0.9921568627450981 W1_625_0 + 0.9921568627450981 W1_626_0
   + 0.9921568627450981 W1_627_0 + 0.9921568627450981 W1_628_0
   + 0.9921568627450981 W1_629_0 + 0.984313725490196 W1_630_0
   + 0.8156862745098039 W1_631_0 + 0.4901960784313725 W1_632_0
   + 0.00784313725490196 W1_633_0 + 0.1137254901960784 W1_648_0
   + 0.5686274509803921 W1_649_0 + 0.9725490196078431 W1_650_0
   + 0.9921568627450981 W1_651_0 + 0.8313725490196079 W1_652_0
   + 0.8980392156862745 W1_653_0 + 0.9921568627450981 W1_654_0
   + 0.8392156862745098 W1_655_0 + 0.7803921568627451 W1_656_0
   + 0.4156862745098039 W1_657_0 + 0.1647058823529412 W1_658_0
   + 0.6666666666666666 W1_676_0 + 0.7529411764705882 W1_677_0
   + 0.6901960784313725 W1_678_0 + 0.196078431372549 W1_679_0
   + 0.0235294117647059 W1_680_0 + 0.0509803921568627 W1_681_0
   + 0.1803921568627451 W1_682_0 + 0.0274509803921569 W1_683_0
   - 20 sign_inner_13_0 <= 0
 sign_1_pkj_pos_13_1: W1_0_1 + 0.7529411764705882 W1_149_1
   + 0.996078431372549 W1_150_1 + 0.9019607843137255 W1_151_1
   + 0.996078431372549 W1_152_1 + 0.996078431372549 W1_153_1 + W1_154_1
   + 0.996078431372549 W1_155_1 + 0.996078431372549 W1_156_1
   + 0.996078431372549 W1_157_1 + 0.996078431372549 W1_158_1
   + 0.8313725490196079 W1_159_1 + 0.6823529411764706 W1_160_1
   + 0.1647058823529412 W1_161_1 + 0.2509803921568627 W1_177_1
   + 0.792156862745098 W1_178_1 + 0.8117647058823529 W1_179_1
   + 0.8117647058823529 W1_180_1 + 0.8117647058823529 W1_181_1
   + 0.8117647058823529 W1_182_1 + 0.8117647058823529 W1_183_1
   + 0.5450980392156862 W1_184_1 + 0.6196078431372549 W1_185_1
   + 0.5803921568627451 W1_186_1 + 0.9215686274509803 W1_187_1
   + 0.9921568627450981 W1_188_1 + 0.9294117647058824 W1_189_1
   + 0.2352941176470588 W1_190_1 + 0.2549019607843137 W1_214_1
   + 0.9294117647058824 W1_215_1 + 0.9921568627450981 W1_216_1
   + 0.9607843137254902 W1_217_1 + 0.2588235294117647 W1_218_1
   + 0.1176470588235294 W1_240_1 + 0.5607843137254902 W1_241_1
   + 0.9137254901960784 W1_242_1 + 0.9921568627450981 W1_243_1
   + 0.9882352941176471 W1_244_1 + 0.5411764705882353 W1_245_1
   + 0.0470588235294118 W1_265_1 + 0.2745098039215687 W1_266_1
   + 0.6 W1_267_1 + 0.8901960784313725 W1_268_1
   + 0.9921568627450981 W1_269_1 + 0.9921568627450981 W1_270_1
   + 0.9098039215686274 W1_271_1 + 0.4509803921568628 W1_272_1
   + 0.0313725490196078 W1_291_1 + 0.3098039215686275 W1_292_1
   + 0.7686274509803922 W1_293_1 + 0.996078431372549 W1_294_1
   + 0.9921568627450981 W1_295_1 + 0.9921568627450981 W1_296_1
   + 0.9019607843137255 W1_297_1 + 0.611764705882353 W1_298_1
   + 0.1137254901960784 W1_299_1 + 0.00392156862745098 W1_318_1
   + 0.6039215686274509 W1_319_1 + 0.9921568627450981 W1_320_1
   + 0.9921568627450981 W1_321_1 + 0.996078431372549 W1_322_1
   + 0.7529411764705882 W1_323_1 + 0.5019607843137255 W1_324_1
   + 0.1372549019607843 W1_325_1 + 0.0117647058823529 W1_346_1
   + 0.615686274509804 W1_347_1 + 0.9333333333333333 W1_348_1
   + 0.9921568627450981 W1_349_1 + 0.996078431372549 W1_350_1
   + 0.9921568627450981 W1_351_1 + 0.8352941176470589 W1_352_1
   + 0.7215686274509804 W1_353_1 + 0.5843137254901961 W1_354_1
   + 0.2588235294117647 W1_355_1 + 0.0470588235294118 W1_356_1
   + 0.1568627450980392 W1_376_1 + 0.4823529411764706 W1_377_1
   + 0.4823529411764706 W1_378_1 + 0.6235294117647059 W1_379_1
   + 0.7803921568627451 W1_380_1 + 0.6901960784313725 W1_381_1
   + 0.7803921568627451 W1_382_1 + 0.8980392156862745 W1_383_1
   + 0.8705882352941177 W1_384_1 + 0.3607843137254902 W1_385_1
   + 0.1215686274509804 W1_411_1 + 0.9568627450980393 W1_412_1
   + 0.9803921568627451 W1_413_1 + 0.6196078431372549 W1_414_1
   + 0.3058823529411765 W1_440_1 + 0.996078431372549 W1_441_1
   + 0.996078431372549 W1_442_1 + 0.207843137254902 W1_443_1
   + 0.3254901960784314 W1_468_1 + 0.9921568627450981 W1_469_1
   + 0.9921568627450981 W1_470_1 + 0.392156862745098 W1_471_1
   + 0.6313725490196078 W1_496_1 + 0.9921568627450981 W1_497_1
   + 0.9921568627450981 W1_498_1 + 0.1254901960784314 W1_499_1
   + 0.0313725490196078 W1_522_1 + 0.5529411764705883 W1_523_1
   + 0.9803921568627451 W1_524_1 + 0.9294117647058824 W1_525_1
   + 0.4117647058823529 W1_526_1 + 0.00392156862745098 W1_527_1
   + 0.0431372549019608 W1_548_1 + 0.3725490196078431 W1_549_1
   + 0.8627450980392157 W1_550_1 + 0.9921568627450981 W1_551_1
   + 0.9882352941176471 W1_552_1 + 0.3019607843137255 W1_553_1
   + 0.2 W1_574_1 + 0.596078431372549 W1_575_1
   + 0.8862745098039215 W1_576_1 + 0.9921568627450981 W1_577_1
   + 0.9921568627450981 W1_578_1 + 0.8588235294117647 W1_579_1
   + 0.2705882352941176 W1_580_1 + 0.0235294117647059 W1_596_1
   + 0.0313725490196078 W1_597_1 + 0.2235294117647059 W1_598_1
   + 0.3333333333333333 W1_599_1 + 0.5764705882352941 W1_600_1
   + 0.9098039215686274 W1_601_1 + 0.9764705882352941 W1_602_1
   + 0.9921568627450981 W1_603_1 + 0.9921568627450981 W1_604_1
   + 0.8509803921568627 W1_605_1 + 0.4352941176470588 W1_606_1
   + 0.0745098039215686 W1_607_1 + 0.1921568627450981 W1_622_1
   + 0.5294117647058824 W1_623_1 + 0.9254901960784314 W1_624_1
   + 0.9921568627450981 W1_625_1 + 0.9921568627450981 W1_626_1
   + 0.9921568627450981 W1_627_1 + 0.9921568627450981 W1_628_1
   + 0.9921568627450981 W1_629_1 + 0.984313725490196 W1_630_1
   + 0.8156862745098039 W1_631_1 + 0.4901960784313725 W1_632_1
   + 0.00784313725490196 W1_633_1 + 0.1137254901960784 W1_648_1
   + 0.5686274509803921 W1_649_1 + 0.9725490196078431 W1_650_1
   + 0.9921568627450981 W1_651_1 + 0.8313725490196079 W1_652_1
   + 0.8980392156862745 W1_653_1 + 0.9921568627450981 W1_654_1
   + 0.8392156862745098 W1_655_1 + 0.7803921568627451 W1_656_1
   + 0.4156862745098039 W1_657_1 + 0.1647058823529412 W1_658_1
   + 0.6666666666666666 W1_676_1 + 0.7529411764705882 W1_677_1
   + 0.6901960784313725 W1_678_1 + 0.196078431372549 W1_679_1
   + 0.0235294117647059 W1_680_1 + 0.0509803921568627 W1_681_1
   + 0.1803921568627451 W1_682_1 + 0.0274509803921569 W1_683_1
   - 20 sign_inner_13_1 >= -19.999
 sign_0_pkj_neg_13_1: W1_0_1 + 0.7529411764705882 W1_149_1
   + 0.996078431372549 W1_150_1 + 0.9019607843137255 W1_151_1
   + 0.996078431372549 W1_152_1 + 0.996078431372549 W1_153_1 + W1_154_1
   + 0.996078431372549 W1_155_1 + 0.996078431372549 W1_156_1
   + 0.996078431372549 W1_157_1 + 0.996078431372549 W1_158_1
   + 0.8313725490196079 W1_159_1 + 0.6823529411764706 W1_160_1
   + 0.1647058823529412 W1_161_1 + 0.2509803921568627 W1_177_1
   + 0.792156862745098 W1_178_1 + 0.8117647058823529 W1_179_1
   + 0.8117647058823529 W1_180_1 + 0.8117647058823529 W1_181_1
   + 0.8117647058823529 W1_182_1 + 0.8117647058823529 W1_183_1
   + 0.5450980392156862 W1_184_1 + 0.6196078431372549 W1_185_1
   + 0.5803921568627451 W1_186_1 + 0.9215686274509803 W1_187_1
   + 0.9921568627450981 W1_188_1 + 0.9294117647058824 W1_189_1
   + 0.2352941176470588 W1_190_1 + 0.2549019607843137 W1_214_1
   + 0.9294117647058824 W1_215_1 + 0.9921568627450981 W1_216_1
   + 0.9607843137254902 W1_217_1 + 0.2588235294117647 W1_218_1
   + 0.1176470588235294 W1_240_1 + 0.5607843137254902 W1_241_1
   + 0.9137254901960784 W1_242_1 + 0.9921568627450981 W1_243_1
   + 0.9882352941176471 W1_244_1 + 0.5411764705882353 W1_245_1
   + 0.0470588235294118 W1_265_1 + 0.2745098039215687 W1_266_1
   + 0.6 W1_267_1 + 0.8901960784313725 W1_268_1
   + 0.9921568627450981 W1_269_1 + 0.9921568627450981 W1_270_1
   + 0.9098039215686274 W1_271_1 + 0.4509803921568628 W1_272_1
   + 0.0313725490196078 W1_291_1 + 0.3098039215686275 W1_292_1
   + 0.7686274509803922 W1_293_1 + 0.996078431372549 W1_294_1
   + 0.9921568627450981 W1_295_1 + 0.9921568627450981 W1_296_1
   + 0.9019607843137255 W1_297_1 + 0.611764705882353 W1_298_1
   + 0.1137254901960784 W1_299_1 + 0.00392156862745098 W1_318_1
   + 0.6039215686274509 W1_319_1 + 0.9921568627450981 W1_320_1
   + 0.9921568627450981 W1_321_1 + 0.996078431372549 W1_322_1
   + 0.7529411764705882 W1_323_1 + 0.5019607843137255 W1_324_1
   + 0.1372549019607843 W1_325_1 + 0.0117647058823529 W1_346_1
   + 0.615686274509804 W1_347_1 + 0.9333333333333333 W1_348_1
   + 0.9921568627450981 W1_349_1 + 0.996078431372549 W1_350_1
   + 0.9921568627450981 W1_351_1 + 0.8352941176470589 W1_352_1
   + 0.7215686274509804 W1_353_1 + 0.5843137254901961 W1_354_1
   + 0.2588235294117647 W1_355_1 + 0.0470588235294118 W1_356_1
   + 0.1568627450980392 W1_376_1 + 0.4823529411764706 W1_377_1
   + 0.4823529411764706 W1_378_1 + 0.6235294117647059 W1_379_1
   + 0.7803921568627451 W1_380_1 + 0.6901960784313725 W1_381_1
   + 0.7803921568627451 W1_382_1 + 0.8980392156862745 W1_383_1
   + 0.8705882352941177 W1_384_1 + 0.3607843137254902 W1_385_1
   + 0.1215686274509804 W1_411_1 + 0.9568627450980393 W1_412_1
   + 0.9803921568627451 W1_413_1 + 0.6196078431372549 W1_414_1
   + 0.3058823529411765 W1_440_1 + 0.996078431372549 W1_441_1
   + 0.996078431372549 W1_442_1 + 0.207843137254902 W1_443_1
   + 0.3254901960784314 W1_468_1 + 0.9921568627450981 W1_469_1
   + 0.9921568627450981 W1_470_1 + 0.392156862745098 W1_471_1
   + 0.6313725490196078 W1_496_1 + 0.9921568627450981 W1_497_1
   + 0.9921568627450981 W1_498_1 + 0.1254901960784314 W1_499_1
   + 0.0313725490196078 W1_522_1 + 0.5529411764705883 W1_523_1
   + 0.9803921568627451 W1_524_1 + 0.9294117647058824 W1_525_1
   + 0.4117647058823529 W1_526_1 + 0.00392156862745098 W1_527_1
   + 0.0431372549019608 W1_548_1 + 0.3725490196078431 W1_549_1
   + 0.8627450980392157 W1_550_1 + 0.9921568627450981 W1_551_1
   + 0.9882352941176471 W1_552_1 + 0.3019607843137255 W1_553_1
   + 0.2 W1_574_1 + 0.596078431372549 W1_575_1
   + 0.8862745098039215 W1_576_1 + 0.9921568627450981 W1_577_1
   + 0.9921568627450981 W1_578_1 + 0.8588235294117647 W1_579_1
   + 0.2705882352941176 W1_580_1 + 0.0235294117647059 W1_596_1
   + 0.0313725490196078 W1_597_1 + 0.2235294117647059 W1_598_1
   + 0.3333333333333333 W1_599_1 + 0.5764705882352941 W1_600_1
   + 0.9098039215686274 W1_601_1 + 0.9764705882352941 W1_602_1
   + 0.9921568627450981 W1_603_1 + 0.9921568627450981 W1_604_1
   + 0.8509803921568627 W1_605_1 + 0.4352941176470588 W1_606_1
   + 0.0745098039215686 W1_607_1 + 0.1921568627450981 W1_622_1
   + 0.5294117647058824 W1_623_1 + 0.9254901960784314 W1_624_1
   + 0.9921568627450981 W1_625_1 + 0.9921568627450981 W1_626_1
   + 0.9921568627450981 W1_627_1 + 0.9921568627450981 W1_628_1
   + 0.9921568627450981 W1_629_1 + 0.984313725490196 W1_630_1
   + 0.8156862745098039 W1_631_1 + 0.4901960784313725 W1_632_1
   + 0.00784313725490196 W1_633_1 + 0.1137254901960784 W1_648_1
   + 0.5686274509803921 W1_649_1 + 0.9725490196078431 W1_650_1
   + 0.9921568627450981 W1_651_1 + 0.8313725490196079 W1_652_1
   + 0.8980392156862745 W1_653_1 + 0.9921568627450981 W1_654_1
   + 0.8392156862745098 W1_655_1 + 0.7803921568627451 W1_656_1
   + 0.4156862745098039 W1_657_1 + 0.1647058823529412 W1_658_1
   + 0.6666666666666666 W1_676_1 + 0.7529411764705882 W1_677_1
   + 0.6901960784313725 W1_678_1 + 0.196078431372549 W1_679_1
   + 0.0235294117647059 W1_680_1 + 0.0509803921568627 W1_681_1
   + 0.1803921568627451 W1_682_1 + 0.0274509803921569 W1_683_1
   - 20 sign_inner_13_1 <= 0
 sign_1_pkj_pos_14_0: W1_0_0 + 0.1803921568627451 W1_163_0
   + 0.0274509803921569 W1_164_0 + 0.0588235294117647 W1_190_0
   + 0.9803921568627451 W1_191_0 + 0.5098039215686274 W1_192_0
   + 0.4588235294117647 W1_218_0 + 0.9921568627450981 W1_219_0
   + 0.8196078431372549 W1_220_0 + 0.0705882352941176 W1_245_0
   + 0.8 W1_246_0 + 0.9921568627450981 W1_247_0
   + 0.5607843137254902 W1_248_0 + 0.5294117647058824 W1_263_0
   + 0.8549019607843137 W1_264_0 + 0.0274509803921569 W1_265_0
   + 0.0156862745098039 W1_272_0 + 0.4980392156862745 W1_273_0
   + 0.996078431372549 W1_274_0 + 0.8862745098039215 W1_275_0
   + 0.2431372549019608 W1_276_0 + 0.3568627450980392 W1_291_0
   + 0.9921568627450981 W1_292_0 + 0.407843137254902 W1_293_0
   + 0.1529411764705882 W1_300_0 + 0.9411764705882353 W1_301_0
   + 0.9921568627450981 W1_302_0 + 0.4588235294117647 W1_303_0
   + 0.3725490196078431 W1_319_0 + 0.9921568627450981 W1_320_0
   + 0.407843137254902 W1_321_0 + 0.0196078431372549 W1_327_0
   + 0.788235294117647 W1_328_0 + 0.9921568627450981 W1_329_0
   + 0.8 W1_330_0 + 0.0156862745098039 W1_331_0
   + 0.0352941176470588 W1_346_0 + 0.8705882352941177 W1_347_0
   + 0.9921568627450981 W1_348_0 + 0.3215686274509804 W1_349_0
   + 0.4862745098039216 W1_355_0 + 0.996078431372549 W1_356_0
   + 0.9921568627450981 W1_357_0 + 0.0588235294117647 W1_358_0
   + 0.5333333333333333 W1_374_0 + 0.9725490196078431 W1_375_0
   + 0.7686274509803922 W1_376_0 + 0.0274509803921569 W1_377_0
   + 0.3294117647058823 W1_382_0 + 0.9803921568627451 W1_383_0
   + 0.996078431372549 W1_384_0 + 0.5254901960784314 W1_385_0
   + 0.00784313725490196 W1_386_0 + 0.0588235294117647 W1_400_0
   + 0.6352941176470588 W1_401_0 + W1_402_0 + 0.996078431372549 W1_403_0
   + 0.7686274509803922 W1_404_0 + 0.0274509803921569 W1_405_0
   + 0.0156862745098039 W1_407_0 + 0.5137254901960784 W1_408_0
   + 0.615686274509804 W1_409_0 + 0.9254901960784314 W1_410_0
   + 0.996078431372549 W1_411_0 + 0.6745098039215687 W1_412_0
   + 0.0549019607843137 W1_413_0 + 0.1725490196078431 W1_427_0
   + 0.7450980392156863 W1_428_0 + 0.9921568627450981 W1_429_0
   + 0.9686274509803922 W1_430_0 + 0.7568627450980392 W1_431_0
   + 0.9803921568627451 W1_432_0 + 0.8588235294117647 W1_433_0
   + 0.8196078431372549 W1_434_0 + 0.8431372549019608 W1_435_0
   + 0.9921568627450981 W1_436_0 + 0.9921568627450981 W1_437_0
   + 0.9921568627450981 W1_438_0 + 0.7686274509803922 W1_439_0
   + 0.0549019607843137 W1_440_0 + 0.0274509803921569 W1_453_0
   + 0.3725490196078431 W1_454_0 + 0.9568627450980393 W1_455_0
   + 0.9921568627450981 W1_456_0 + 0.8549019607843137 W1_457_0
   + 0.3098039215686275 W1_458_0 + 0.2627450980392157 W1_460_0
   + 0.6392156862745098 W1_461_0 + 0.6392156862745098 W1_462_0
   + 0.8549019607843137 W1_463_0 + 0.9921568627450981 W1_464_0
   + 0.9921568627450981 W1_465_0 + 0.9137254901960784 W1_466_0
   + 0.1803921568627451 W1_467_0 + 0.7725490196078432 W1_481_0
   + 0.9921568627450981 W1_482_0 + 0.9803921568627451 W1_483_0
   + 0.4549019607843137 W1_484_0 + 0.0274509803921569 W1_485_0
   + 0.7019607843137254 W1_491_0 + 0.9921568627450981 W1_492_0
   + 0.9647058823529412 W1_493_0 + 0.1921568627450981 W1_494_0
   + 0.8235294117647058 W1_509_0 + 0.8352941176470589 W1_510_0
   + 0.2274509803921569 W1_511_0 + 0.0901960784313725 W1_518_0
   + 0.996078431372549 W1_519_0 + 0.9921568627450981 W1_520_0
   + 0.4196078431372549 W1_521_0 + 0.4509803921568628 W1_546_0 + W1_547_0
   + 0.6745098039215687 W1_548_0 + 0.0196078431372549 W1_549_0
   + 0.3882352941176471 W1_573_0 + 0.9725490196078431 W1_574_0
   + 0.8627450980392157 W1_575_0 + 0.0823529411764706 W1_576_0
   + 0.2352941176470588 W1_601_0 + 0.8470588235294118 W1_602_0
   + 0.1215686274509804 W1_603_0 + 0.0705882352941176 W1_629_0
   + 0.1372549019607843 W1_630_0 - 20 sign_inner_14_0 >= -19.999
 sign_0_pkj_neg_14_0: W1_0_0 + 0.1803921568627451 W1_163_0
   + 0.0274509803921569 W1_164_0 + 0.0588235294117647 W1_190_0
   + 0.9803921568627451 W1_191_0 + 0.5098039215686274 W1_192_0
   + 0.4588235294117647 W1_218_0 + 0.9921568627450981 W1_219_0
   + 0.8196078431372549 W1_220_0 + 0.0705882352941176 W1_245_0
   + 0.8 W1_246_0 + 0.9921568627450981 W1_247_0
   + 0.5607843137254902 W1_248_0 + 0.5294117647058824 W1_263_0
   + 0.8549019607843137 W1_264_0 + 0.0274509803921569 W1_265_0
   + 0.0156862745098039 W1_272_0 + 0.4980392156862745 W1_273_0
   + 0.996078431372549 W1_274_0 + 0.8862745098039215 W1_275_0
   + 0.2431372549019608 W1_276_0 + 0.3568627450980392 W1_291_0
   + 0.9921568627450981 W1_292_0 + 0.407843137254902 W1_293_0
   + 0.1529411764705882 W1_300_0 + 0.9411764705882353 W1_301_0
   + 0.9921568627450981 W1_302_0 + 0.4588235294117647 W1_303_0
   + 0.3725490196078431 W1_319_0 + 0.9921568627450981 W1_320_0
   + 0.407843137254902 W1_321_0 + 0.0196078431372549 W1_327_0
   + 0.788235294117647 W1_328_0 + 0.9921568627450981 W1_329_0
   + 0.8 W1_330_0 + 0.0156862745098039 W1_331_0
   + 0.0352941176470588 W1_346_0 + 0.8705882352941177 W1_347_0
   + 0.9921568627450981 W1_348_0 + 0.3215686274509804 W1_349_0
   + 0.4862745098039216 W1_355_0 + 0.996078431372549 W1_356_0
   + 0.9921568627450981 W1_357_0 + 0.0588235294117647 W1_358_0
   + 0.5333333333333333 W1_374_0 + 0.9725490196078431 W1_375_0
   + 0.7686274509803922 W1_376_0 + 0.0274509803921569 W1_377_0
   + 0.3294117647058823 W1_382_0 + 0.9803921568627451 W1_383_0
   + 0.996078431372549 W1_384_0 + 0.5254901960784314 W1_385_0
   + 0.00784313725490196 W1_386_0 + 0.0588235294117647 W1_400_0
   + 0.6352941176470588 W1_401_0 + W1_402_0 + 0.996078431372549 W1_403_0
   + 0.7686274509803922 W1_404_0 + 0.0274509803921569 W1_405_0
   + 0.0156862745098039 W1_407_0 + 0.5137254901960784 W1_408_0
   + 0.615686274509804 W1_409_0 + 0.9254901960784314 W1_410_0
   + 0.996078431372549 W1_411_0 + 0.6745098039215687 W1_412_0
   + 0.0549019607843137 W1_413_0 + 0.1725490196078431 W1_427_0
   + 0.7450980392156863 W1_428_0 + 0.9921568627450981 W1_429_0
   + 0.9686274509803922 W1_430_0 + 0.7568627450980392 W1_431_0
   + 0.9803921568627451 W1_432_0 + 0.8588235294117647 W1_433_0
   + 0.8196078431372549 W1_434_0 + 0.8431372549019608 W1_435_0
   + 0.9921568627450981 W1_436_0 + 0.9921568627450981 W1_437_0
   + 0.9921568627450981 W1_438_0 + 0.7686274509803922 W1_439_0
   + 0.0549019607843137 W1_440_0 + 0.0274509803921569 W1_453_0
   + 0.3725490196078431 W1_454_0 + 0.9568627450980393 W1_455_0
   + 0.9921568627450981 W1_456_0 + 0.8549019607843137 W1_457_0
   + 0.3098039215686275 W1_458_0 + 0.2627450980392157 W1_460_0
   + 0.6392156862745098 W1_461_0 + 0.6392156862745098 W1_462_0
   + 0.8549019607843137 W1_463_0 + 0.9921568627450981 W1_464_0
   + 0.9921568627450981 W1_465_0 + 0.9137254901960784 W1_466_0
   + 0.1803921568627451 W1_467_0 + 0.7725490196078432 W1_481_0
   + 0.9921568627450981 W1_482_0 + 0.9803921568627451 W1_483_0
   + 0.4549019607843137 W1_484_0 + 0.0274509803921569 W1_485_0
   + 0.7019607843137254 W1_491_0 + 0.9921568627450981 W1_492_0
   + 0.9647058823529412 W1_493_0 + 0.1921568627450981 W1_494_0
   + 0.8235294117647058 W1_509_0 + 0.8352941176470589 W1_510_0
   + 0.2274509803921569 W1_511_0 + 0.0901960784313725 W1_518_0
   + 0.996078431372549 W1_519_0 + 0.9921568627450981 W1_520_0
   + 0.4196078431372549 W1_521_0 + 0.4509803921568628 W1_546_0 + W1_547_0
   + 0.6745098039215687 W1_548_0 + 0.0196078431372549 W1_549_0
   + 0.3882352941176471 W1_573_0 + 0.9725490196078431 W1_574_0
   + 0.8627450980392157 W1_575_0 + 0.0823529411764706 W1_576_0
   + 0.2352941176470588 W1_601_0 + 0.8470588235294118 W1_602_0
   + 0.1215686274509804 W1_603_0 + 0.0705882352941176 W1_629_0
   + 0.1372549019607843 W1_630_0 - 20 sign_inner_14_0 <= 0
 sign_1_pkj_pos_14_1: W1_0_1 + 0.1803921568627451 W1_163_1
   + 0.0274509803921569 W1_164_1 + 0.0588235294117647 W1_190_1
   + 0.9803921568627451 W1_191_1 + 0.5098039215686274 W1_192_1
   + 0.4588235294117647 W1_218_1 + 0.9921568627450981 W1_219_1
   + 0.8196078431372549 W1_220_1 + 0.0705882352941176 W1_245_1
   + 0.8 W1_246_1 + 0.9921568627450981 W1_247_1
   + 0.5607843137254902 W1_248_1 + 0.5294117647058824 W1_263_1
   + 0.8549019607843137 W1_264_1 + 0.0274509803921569 W1_265_1
   + 0.0156862745098039 W1_272_1 + 0.4980392156862745 W1_273_1
   + 0.996078431372549 W1_274_1 + 0.8862745098039215 W1_275_1
   + 0.2431372549019608 W1_276_1 + 0.3568627450980392 W1_291_1
   + 0.9921568627450981 W1_292_1 + 0.407843137254902 W1_293_1
   + 0.1529411764705882 W1_300_1 + 0.9411764705882353 W1_301_1
   + 0.9921568627450981 W1_302_1 + 0.4588235294117647 W1_303_1
   + 0.3725490196078431 W1_319_1 + 0.9921568627450981 W1_320_1
   + 0.407843137254902 W1_321_1 + 0.0196078431372549 W1_327_1
   + 0.788235294117647 W1_328_1 + 0.9921568627450981 W1_329_1
   + 0.8 W1_330_1 + 0.0156862745098039 W1_331_1
   + 0.0352941176470588 W1_346_1 + 0.8705882352941177 W1_347_1
   + 0.9921568627450981 W1_348_1 + 0.3215686274509804 W1_349_1
   + 0.4862745098039216 W1_355_1 + 0.996078431372549 W1_356_1
   + 0.9921568627450981 W1_357_1 + 0.0588235294117647 W1_358_1
   + 0.5333333333333333 W1_374_1 + 0.9725490196078431 W1_375_1
   + 0.7686274509803922 W1_376_1 + 0.0274509803921569 W1_377_1
   + 0.3294117647058823 W1_382_1 + 0.9803921568627451 W1_383_1
   + 0.996078431372549 W1_384_1 + 0.5254901960784314 W1_385_1
   + 0.00784313725490196 W1_386_1 + 0.0588235294117647 W1_400_1
   + 0.6352941176470588 W1_401_1 + W1_402_1 + 0.996078431372549 W1_403_1
   + 0.7686274509803922 W1_404_1 + 0.0274509803921569 W1_405_1
   + 0.0156862745098039 W1_407_1 + 0.5137254901960784 W1_408_1
   + 0.615686274509804 W1_409_1 + 0.9254901960784314 W1_410_1
   + 0.996078431372549 W1_411_1 + 0.6745098039215687 W1_412_1
   + 0.0549019607843137 W1_413_1 + 0.1725490196078431 W1_427_1
   + 0.7450980392156863 W1_428_1 + 0.9921568627450981 W1_429_1
   + 0.9686274509803922 W1_430_1 + 0.7568627450980392 W1_431_1
   + 0.9803921568627451 W1_432_1 + 0.8588235294117647 W1_433_1
   + 0.8196078431372549 W1_434_1 + 0.8431372549019608 W1_435_1
   + 0.9921568627450981 W1_436_1 + 0.9921568627450981 W1_437_1
   + 0.9921568627450981 W1_438_1 + 0.7686274509803922 W1_439_1
   + 0.0549019607843137 W1_440_1 + 0.0274509803921569 W1_453_1
   + 0.3725490196078431 W1_454_1 + 0.9568627450980393 W1_455_1
   + 0.9921568627450981 W1_456_1 + 0.8549019607843137 W1_457_1
   + 0.3098039215686275 W1_458_1 + 0.2627450980392157 W1_460_1
   + 0.6392156862745098 W1_461_1 + 0.6392156862745098 W1_462_1
   + 0.8549019607843137 W1_463_1 + 0.9921568627450981 W1_464_1
   + 0.9921568627450981 W1_465_1 + 0.9137254901960784 W1_466_1
   + 0.1803921568627451 W1_467_1 + 0.7725490196078432 W1_481_1
   + 0.9921568627450981 W1_482_1 + 0.9803921568627451 W1_483_1
   + 0.4549019607843137 W1_484_1 + 0.0274509803921569 W1_485_1
   + 0.7019607843137254 W1_491_1 + 0.9921568627450981 W1_492_1
   + 0.9647058823529412 W1_493_1 + 0.1921568627450981 W1_494_1
   + 0.8235294117647058 W1_509_1 + 0.8352941176470589 W1_510_1
   + 0.2274509803921569 W1_511_1 + 0.0901960784313725 W1_518_1
   + 0.996078431372549 W1_519_1 + 0.9921568627450981 W1_520_1
   + 0.4196078431372549 W1_521_1 + 0.4509803921568628 W1_546_1 + W1_547_1
   + 0.6745098039215687 W1_548_1 + 0.0196078431372549 W1_549_1
   + 0.3882352941176471 W1_573_1 + 0.9725490196078431 W1_574_1
   + 0.8627450980392157 W1_575_1 + 0.0823529411764706 W1_576_1
   + 0.2352941176470588 W1_601_1 + 0.8470588235294118 W1_602_1
   + 0.1215686274509804 W1_603_1 + 0.0705882352941176 W1_629_1
   + 0.1372549019607843 W1_630_1 - 20 sign_inner_14_1 >= -19.999
 sign_0_pkj_neg_14_1: W1_0_1 + 0.1803921568627451 W1_163_1
   + 0.0274509803921569 W1_164_1 + 0.0588235294117647 W1_190_1
   + 0.9803921568627451 W1_191_1 + 0.5098039215686274 W1_192_1
   + 0.4588235294117647 W1_218_1 + 0.9921568627450981 W1_219_1
   + 0.8196078431372549 W1_220_1 + 0.0705882352941176 W1_245_1
   + 0.8 W1_246_1 + 0.9921568627450981 W1_247_1
   + 0.5607843137254902 W1_248_1 + 0.5294117647058824 W1_263_1
   + 0.8549019607843137 W1_264_1 + 0.0274509803921569 W1_265_1
   + 0.0156862745098039 W1_272_1 + 0.4980392156862745 W1_273_1
   + 0.996078431372549 W1_274_1 + 0.8862745098039215 W1_275_1
   + 0.2431372549019608 W1_276_1 + 0.3568627450980392 W1_291_1
   + 0.9921568627450981 W1_292_1 + 0.407843137254902 W1_293_1
   + 0.1529411764705882 W1_300_1 + 0.9411764705882353 W1_301_1
   + 0.9921568627450981 W1_302_1 + 0.4588235294117647 W1_303_1
   + 0.3725490196078431 W1_319_1 + 0.9921568627450981 W1_320_1
   + 0.407843137254902 W1_321_1 + 0.0196078431372549 W1_327_1
   + 0.788235294117647 W1_328_1 + 0.9921568627450981 W1_329_1
   + 0.8 W1_330_1 + 0.0156862745098039 W1_331_1
   + 0.0352941176470588 W1_346_1 + 0.8705882352941177 W1_347_1
   + 0.9921568627450981 W1_348_1 + 0.3215686274509804 W1_349_1
   + 0.4862745098039216 W1_355_1 + 0.996078431372549 W1_356_1
   + 0.9921568627450981 W1_357_1 + 0.0588235294117647 W1_358_1
   + 0.5333333333333333 W1_374_1 + 0.9725490196078431 W1_375_1
   + 0.7686274509803922 W1_376_1 + 0.0274509803921569 W1_377_1
   + 0.3294117647058823 W1_382_1 + 0.9803921568627451 W1_383_1
   + 0.996078431372549 W1_384_1 + 0.5254901960784314 W1_385_1
   + 0.00784313725490196 W1_386_1 + 0.0588235294117647 W1_400_1
   + 0.6352941176470588 W1_401_1 + W1_402_1 + 0.996078431372549 W1_403_1
   + 0.7686274509803922 W1_404_1 + 0.0274509803921569 W1_405_1
   + 0.0156862745098039 W1_407_1 + 0.5137254901960784 W1_408_1
   + 0.615686274509804 W1_409_1 + 0.9254901960784314 W1_410_1
   + 0.996078431372549 W1_411_1 + 0.6745098039215687 W1_412_1
   + 0.0549019607843137 W1_413_1 + 0.1725490196078431 W1_427_1
   + 0.7450980392156863 W1_428_1 + 0.9921568627450981 W1_429_1
   + 0.9686274509803922 W1_430_1 + 0.7568627450980392 W1_431_1
   + 0.9803921568627451 W1_432_1 + 0.8588235294117647 W1_433_1
   + 0.8196078431372549 W1_434_1 + 0.8431372549019608 W1_435_1
   + 0.9921568627450981 W1_436_1 + 0.9921568627450981 W1_437_1
   + 0.9921568627450981 W1_438_1 + 0.7686274509803922 W1_439_1
   + 0.0549019607843137 W1_440_1 + 0.0274509803921569 W1_453_1
   + 0.3725490196078431 W1_454_1 + 0.9568627450980393 W1_455_1
   + 0.9921568627450981 W1_456_1 + 0.8549019607843137 W1_457_1
   + 0.3098039215686275 W1_458_1 + 0.2627450980392157 W1_460_1
   + 0.6392156862745098 W1_461_1 + 0.6392156862745098 W1_462_1
   + 0.8549019607843137 W1_463_1 + 0.9921568627450981 W1_464_1
   + 0.9921568627450981 W1_465_1 + 0.9137254901960784 W1_466_1
   + 0.1803921568627451 W1_467_1 + 0.7725490196078432 W1_481_1
   + 0.9921568627450981 W1_482_1 + 0.9803921568627451 W1_483_1
   + 0.4549019607843137 W1_484_1 + 0.0274509803921569 W1_485_1
   + 0.7019607843137254 W1_491_1 + 0.9921568627450981 W1_492_1
   + 0.9647058823529412 W1_493_1 + 0.1921568627450981 W1_494_1
   + 0.8235294117647058 W1_509_1 + 0.8352941176470589 W1_510_1
   + 0.2274509803921569 W1_511_1 + 0.0901960784313725 W1_518_1
   + 0.996078431372549 W1_519_1 + 0.9921568627450981 W1_520_1
   + 0.4196078431372549 W1_521_1 + 0.4509803921568628 W1_546_1 + W1_547_1
   + 0.6745098039215687 W1_548_1 + 0.0196078431372549 W1_549_1
   + 0.3882352941176471 W1_573_1 + 0.9725490196078431 W1_574_1
   + 0.8627450980392157 W1_575_1 + 0.0823529411764706 W1_576_1
   + 0.2352941176470588 W1_601_1 + 0.8470588235294118 W1_602_1
   + 0.1215686274509804 W1_603_1 + 0.0705882352941176 W1_629_1
   + 0.1372549019607843 W1_630_1 - 20 sign_inner_14_1 <= 0
 sign_1_pkj_pos_15_0: W1_0_0 + 0.3176470588235294 W1_151_0
   + 0.5137254901960784 W1_152_0 + 0.1647058823529412 W1_153_0
   + 0.6823529411764706 W1_163_0 + 0.7764705882352941 W1_164_0
   + 0.0117647058823529 W1_165_0 + 0.1725490196078431 W1_179_0
   + 0.996078431372549 W1_180_0 + 0.5529411764705883 W1_181_0
   + 0.0470588235294118 W1_190_0 + 0.7058823529411765 W1_191_0
   + 0.7450980392156863 W1_192_0 + 0.0117647058823529 W1_193_0
   + 0.6352941176470588 W1_207_0 + 0.996078431372549 W1_208_0
   + 0.3529411764705883 W1_209_0 + 0.196078431372549 W1_217_0
   + 0.9490196078431372 W1_218_0 + 0.996078431372549 W1_219_0
   + 0.2941176470588235 W1_220_0 + 0.0156862745098039 W1_234_0
   + 0.6705882352941176 W1_235_0 + 0.9803921568627451 W1_236_0
   + 0.7215686274509804 W1_237_0 + 0.0392156862745098 W1_245_0
   + 0.9137254901960784 W1_246_0 + 0.9529411764705882 W1_247_0
   + 0.2431372549019608 W1_248_0 + 0.0627450980392157 W1_262_0
   + 0.8196078431372549 W1_263_0 + 0.9333333333333333 W1_264_0
   + 0.196078431372549 W1_265_0 + 0.392156862745098 W1_273_0 + W1_274_0
   + 0.5568627450980392 W1_275_0 + 0.4352941176470588 W1_290_0
   + 0.996078431372549 W1_291_0 + 0.9137254901960784 W1_292_0
   + 0.1607843137254902 W1_293_0 + 0.2352941176470588 W1_300_0
   + 0.7764705882352941 W1_301_0 + 0.996078431372549 W1_302_0
   + 0.3215686274509804 W1_303_0 + 0.1019607843137255 W1_317_0
   + 0.6784313725490196 W1_318_0 + 0.996078431372549 W1_319_0
   + 0.996078431372549 W1_320_0 + 0.7647058823529411 W1_321_0
   + 0.6588235294117647 W1_322_0 + 0.6588235294117647 W1_323_0
   + 0.6588235294117647 W1_324_0 + 0.6588235294117647 W1_325_0
   + 0.5019607843137255 W1_326_0 + 0.4156862745098039 W1_327_0
   + 0.7137254901960784 W1_328_0 + 0.996078431372549 W1_329_0
   + 0.996078431372549 W1_330_0 + 0.8470588235294118 W1_331_0
   + 0.0313725490196078 W1_332_0 + 0.3490196078431372 W1_345_0
   + 0.996078431372549 W1_346_0 + 0.996078431372549 W1_347_0
   + 0.996078431372549 W1_348_0 + 0.996078431372549 W1_349_0
   + 0.996078431372549 W1_350_0 + 0.996078431372549 W1_351_0
   + 0.996078431372549 W1_352_0 + 0.996078431372549 W1_353_0
   + 0.996078431372549 W1_354_0 + 0.996078431372549 W1_355_0
   + 0.996078431372549 W1_356_0 + 0.996078431372549 W1_357_0 + W1_358_0
   + 0.9098039215686274 W1_359_0 + 0.0392156862745098 W1_360_0
   + 0.2941176470588235 W1_372_0 + 0.8784313725490196 W1_373_0
   + 0.996078431372549 W1_374_0 + 0.996078431372549 W1_375_0
   + 0.996078431372549 W1_376_0 + 0.996078431372549 W1_377_0
   + 0.996078431372549 W1_378_0 + 0.8352941176470589 W1_379_0
   + 0.7764705882352941 W1_380_0 + 0.7764705882352941 W1_381_0
   + 0.8470588235294118 W1_382_0 + 0.996078431372549 W1_383_0
   + 0.996078431372549 W1_384_0 + 0.996078431372549 W1_385_0
   + 0.592156862745098 W1_386_0 + 0.1647058823529412 W1_387_0
   + 0.0156862745098039 W1_399_0 + 0.3019607843137255 W1_400_0
   + 0.996078431372549 W1_401_0 + 0.996078431372549 W1_402_0
   + 0.996078431372549 W1_403_0 + 0.9568627450980393 W1_404_0
   + 0.6549019607843137 W1_405_0 + 0.2666666666666667 W1_406_0
   + 0.0705882352941176 W1_407_0 + 0.2862745098039216 W1_410_0
   + 0.9176470588235294 W1_411_0 + 0.9098039215686274 W1_412_0
   + 0.5607843137254902 W1_413_0 + 0.0274509803921569 W1_414_0
   + 0.4235294117647059 W1_427_0 + 0.996078431372549 W1_428_0
   + 0.996078431372549 W1_429_0 + 0.996078431372549 W1_430_0
   + 0.9568627450980393 W1_431_0 + 0.3686274509803922 W1_432_0
   + 0.807843137254902 W1_438_0 + 0.996078431372549 W1_439_0
   + 0.6313725490196078 W1_440_0 + 0.00784313725490196 W1_454_0
   + 0.6745098039215687 W1_455_0 + 0.996078431372549 W1_456_0
   + 0.996078431372549 W1_457_0 + 0.8196078431372549 W1_458_0
   + 0.3647058823529412 W1_459_0 + 0.2313725490196079 W1_465_0
   + 0.8627450980392157 W1_466_0 + 0.996078431372549 W1_467_0
   + 0.4901960784313725 W1_468_0 + 0.00784313725490196 W1_482_0
   + 0.6235294117647059 W1_483_0 + 0.996078431372549 W1_484_0
   + 0.9686274509803922 W1_485_0 + 0.2666666666666667 W1_486_0
   + 0.3882352941176471 W1_493_0 + 0.996078431372549 W1_494_0
   + 0.8901960784313725 W1_495_0 + 0.0980392156862745 W1_496_0
   + 0.0156862745098039 W1_510_0 + 0.7647058823529411 W1_511_0
   + 0.9372549019607843 W1_512_0 + 0.1529411764705882 W1_513_0
   + 0.2274509803921569 W1_520_0 + 0.8784313725490196 W1_521_0
   + 0.8431372549019608 W1_522_0 + 0.1686274509803922 W1_523_0
   + 0.0784313725490196 W1_539_0 + 0.3725490196078431 W1_540_0
   + 0.0901960784313725 W1_547_0 + 0.7764705882352941 W1_548_0
   + 0.996078431372549 W1_549_0 + 0.8823529411764706 W1_550_0
   + 0.1058823529411765 W1_551_0 + 0.3176470588235294 W1_575_0
   + 0.8784313725490196 W1_576_0 + 0.996078431372549 W1_577_0
   + 0.6784313725490196 W1_578_0 + 0.4431372549019608 W1_602_0
   + 0.9725490196078431 W1_603_0 + 0.996078431372549 W1_604_0
   + 0.7294117647058823 W1_605_0 + 0.0666666666666667 W1_606_0
   + 0.0901960784313725 W1_629_0 + 0.5607843137254902 W1_630_0
   + 0.996078431372549 W1_631_0 + 0.8784313725490196 W1_632_0
   + 0.396078431372549 W1_633_0 + 0.1058823529411765 W1_657_0
   + 0.8627450980392157 W1_658_0 + 0.996078431372549 W1_659_0
   + 0.2627450980392157 W1_660_0 + 0.7098039215686275 W1_686_0
   + 0.8784313725490196 W1_687_0 + 0.1254901960784314 W1_688_0
   - 20 sign_inner_15_0 >= -19.999
 sign_0_pkj_neg_15_0: W1_0_0 + 0.3176470588235294 W1_151_0
   + 0.5137254901960784 W1_152_0 + 0.1647058823529412 W1_153_0
   + 0.6823529411764706 W1_163_0 + 0.7764705882352941 W1_164_0
   + 0.0117647058823529 W1_165_0 + 0.1725490196078431 W1_179_0
   + 0.996078431372549 W1_180_0 + 0.5529411764705883 W1_181_0
   + 0.0470588235294118 W1_190_0 + 0.7058823529411765 W1_191_0
   + 0.7450980392156863 W1_192_0 + 0.0117647058823529 W1_193_0
   + 0.6352941176470588 W1_207_0 + 0.996078431372549 W1_208_0
   + 0.3529411764705883 W1_209_0 + 0.196078431372549 W1_217_0
   + 0.9490196078431372 W1_218_0 + 0.996078431372549 W1_219_0
   + 0.2941176470588235 W1_220_0 + 0.0156862745098039 W1_234_0
   + 0.6705882352941176 W1_235_0 + 0.9803921568627451 W1_236_0
   + 0.7215686274509804 W1_237_0 + 0.0392156862745098 W1_245_0
   + 0.9137254901960784 W1_246_0 + 0.9529411764705882 W1_247_0
   + 0.2431372549019608 W1_248_0 + 0.0627450980392157 W1_262_0
   + 0.8196078431372549 W1_263_0 + 0.9333333333333333 W1_264_0
   + 0.196078431372549 W1_265_0 + 0.392156862745098 W1_273_0 + W1_274_0
   + 0.5568627450980392 W1_275_0 + 0.4352941176470588 W1_290_0
   + 0.996078431372549 W1_291_0 + 0.9137254901960784 W1_292_0
   + 0.1607843137254902 W1_293_0 + 0.2352941176470588 W1_300_0
   + 0.7764705882352941 W1_301_0 + 0.996078431372549 W1_302_0
   + 0.3215686274509804 W1_303_0 + 0.1019607843137255 W1_317_0
   + 0.6784313725490196 W1_318_0 + 0.996078431372549 W1_319_0
   + 0.996078431372549 W1_320_0 + 0.7647058823529411 W1_321_0
   + 0.6588235294117647 W1_322_0 + 0.6588235294117647 W1_323_0
   + 0.6588235294117647 W1_324_0 + 0.6588235294117647 W1_325_0
   + 0.5019607843137255 W1_326_0 + 0.4156862745098039 W1_327_0
   + 0.7137254901960784 W1_328_0 + 0.996078431372549 W1_329_0
   + 0.996078431372549 W1_330_0 + 0.8470588235294118 W1_331_0
   + 0.0313725490196078 W1_332_0 + 0.3490196078431372 W1_345_0
   + 0.996078431372549 W1_346_0 + 0.996078431372549 W1_347_0
   + 0.996078431372549 W1_348_0 + 0.996078431372549 W1_349_0
   + 0.996078431372549 W1_350_0 + 0.996078431372549 W1_351_0
   + 0.996078431372549 W1_352_0 + 0.996078431372549 W1_353_0
   + 0.996078431372549 W1_354_0 + 0.996078431372549 W1_355_0
   + 0.996078431372549 W1_356_0 + 0.996078431372549 W1_357_0 + W1_358_0
   + 0.9098039215686274 W1_359_0 + 0.0392156862745098 W1_360_0
   + 0.2941176470588235 W1_372_0 + 0.8784313725490196 W1_373_0
   + 0.996078431372549 W1_374_0 + 0.996078431372549 W1_375_0
   + 0.996078431372549 W1_376_0 + 0.996078431372549 W1_377_0
   + 0.996078431372549 W1_378_0 + 0.8352941176470589 W1_379_0
   + 0.7764705882352941 W1_380_0 + 0.7764705882352941 W1_381_0
   + 0.8470588235294118 W1_382_0 + 0.996078431372549 W1_383_0
   + 0.996078431372549 W1_384_0 + 0.996078431372549 W1_385_0
   + 0.592156862745098 W1_386_0 + 0.1647058823529412 W1_387_0
   + 0.0156862745098039 W1_399_0 + 0.3019607843137255 W1_400_0
   + 0.996078431372549 W1_401_0 + 0.996078431372549 W1_402_0
   + 0.996078431372549 W1_403_0 + 0.9568627450980393 W1_404_0
   + 0.6549019607843137 W1_405_0 + 0.2666666666666667 W1_406_0
   + 0.0705882352941176 W1_407_0 + 0.2862745098039216 W1_410_0
   + 0.9176470588235294 W1_411_0 + 0.9098039215686274 W1_412_0
   + 0.5607843137254902 W1_413_0 + 0.0274509803921569 W1_414_0
   + 0.4235294117647059 W1_427_0 + 0.996078431372549 W1_428_0
   + 0.996078431372549 W1_429_0 + 0.996078431372549 W1_430_0
   + 0.9568627450980393 W1_431_0 + 0.3686274509803922 W1_432_0
   + 0.807843137254902 W1_438_0 + 0.996078431372549 W1_439_0
   + 0.6313725490196078 W1_440_0 + 0.00784313725490196 W1_454_0
   + 0.6745098039215687 W1_455_0 + 0.996078431372549 W1_456_0
   + 0.996078431372549 W1_457_0 + 0.8196078431372549 W1_458_0
   + 0.3647058823529412 W1_459_0 + 0.2313725490196079 W1_465_0
   + 0.8627450980392157 W1_466_0 + 0.996078431372549 W1_467_0
   + 0.4901960784313725 W1_468_0 + 0.00784313725490196 W1_482_0
   + 0.6235294117647059 W1_483_0 + 0.996078431372549 W1_484_0
   + 0.9686274509803922 W1_485_0 + 0.2666666666666667 W1_486_0
   + 0.3882352941176471 W1_493_0 + 0.996078431372549 W1_494_0
   + 0.8901960784313725 W1_495_0 + 0.0980392156862745 W1_496_0
   + 0.0156862745098039 W1_510_0 + 0.7647058823529411 W1_511_0
   + 0.9372549019607843 W1_512_0 + 0.1529411764705882 W1_513_0
   + 0.2274509803921569 W1_520_0 + 0.8784313725490196 W1_521_0
   + 0.8431372549019608 W1_522_0 + 0.1686274509803922 W1_523_0
   + 0.0784313725490196 W1_539_0 + 0.3725490196078431 W1_540_0
   + 0.0901960784313725 W1_547_0 + 0.7764705882352941 W1_548_0
   + 0.996078431372549 W1_549_0 + 0.8823529411764706 W1_550_0
   + 0.1058823529411765 W1_551_0 + 0.3176470588235294 W1_575_0
   + 0.8784313725490196 W1_576_0 + 0.996078431372549 W1_577_0
   + 0.6784313725490196 W1_578_0 + 0.4431372549019608 W1_602_0
   + 0.9725490196078431 W1_603_0 + 0.996078431372549 W1_604_0
   + 0.7294117647058823 W1_605_0 + 0.0666666666666667 W1_606_0
   + 0.0901960784313725 W1_629_0 + 0.5607843137254902 W1_630_0
   + 0.996078431372549 W1_631_0 + 0.8784313725490196 W1_632_0
   + 0.396078431372549 W1_633_0 + 0.1058823529411765 W1_657_0
   + 0.8627450980392157 W1_658_0 + 0.996078431372549 W1_659_0
   + 0.2627450980392157 W1_660_0 + 0.7098039215686275 W1_686_0
   + 0.8784313725490196 W1_687_0 + 0.1254901960784314 W1_688_0
   - 20 sign_inner_15_0 <= 0
 sign_1_pkj_pos_15_1: W1_0_1 + 0.3176470588235294 W1_151_1
   + 0.5137254901960784 W1_152_1 + 0.1647058823529412 W1_153_1
   + 0.6823529411764706 W1_163_1 + 0.7764705882352941 W1_164_1
   + 0.0117647058823529 W1_165_1 + 0.1725490196078431 W1_179_1
   + 0.996078431372549 W1_180_1 + 0.5529411764705883 W1_181_1
   + 0.0470588235294118 W1_190_1 + 0.7058823529411765 W1_191_1
   + 0.7450980392156863 W1_192_1 + 0.0117647058823529 W1_193_1
   + 0.6352941176470588 W1_207_1 + 0.996078431372549 W1_208_1
   + 0.3529411764705883 W1_209_1 + 0.196078431372549 W1_217_1
   + 0.9490196078431372 W1_218_1 + 0.996078431372549 W1_219_1
   + 0.2941176470588235 W1_220_1 + 0.0156862745098039 W1_234_1
   + 0.6705882352941176 W1_235_1 + 0.9803921568627451 W1_236_1
   + 0.7215686274509804 W1_237_1 + 0.0392156862745098 W1_245_1
   + 0.9137254901960784 W1_246_1 + 0.9529411764705882 W1_247_1
   + 0.2431372549019608 W1_248_1 + 0.0627450980392157 W1_262_1
   + 0.8196078431372549 W1_263_1 + 0.9333333333333333 W1_264_1
   + 0.196078431372549 W1_265_1 + 0.392156862745098 W1_273_1 + W1_274_1
   + 0.5568627450980392 W1_275_1 + 0.4352941176470588 W1_290_1
   + 0.996078431372549 W1_291_1 + 0.9137254901960784 W1_292_1
   + 0.1607843137254902 W1_293_1 + 0.2352941176470588 W1_300_1
   + 0.7764705882352941 W1_301_1 + 0.996078431372549 W1_302_1
   + 0.3215686274509804 W1_303_1 + 0.1019607843137255 W1_317_1
   + 0.6784313725490196 W1_318_1 + 0.996078431372549 W1_319_1
   + 0.996078431372549 W1_320_1 + 0.7647058823529411 W1_321_1
   + 0.6588235294117647 W1_322_1 + 0.6588235294117647 W1_323_1
   + 0.6588235294117647 W1_324_1 + 0.6588235294117647 W1_325_1
   + 0.5019607843137255 W1_326_1 + 0.4156862745098039 W1_327_1
   + 0.7137254901960784 W1_328_1 + 0.996078431372549 W1_329_1
   + 0.996078431372549 W1_330_1 + 0.8470588235294118 W1_331_1
   + 0.0313725490196078 W1_332_1 + 0.3490196078431372 W1_345_1
   + 0.996078431372549 W1_346_1 + 0.996078431372549 W1_347_1
   + 0.996078431372549 W1_348_1 + 0.996078431372549 W1_349_1
   + 0.996078431372549 W1_350_1 + 0.996078431372549 W1_351_1
   + 0.996078431372549 W1_352_1 + 0.996078431372549 W1_353_1
   + 0.996078431372549 W1_354_1 + 0.996078431372549 W1_355_1
   + 0.996078431372549 W1_356_1 + 0.996078431372549 W1_357_1 + W1_358_1
   + 0.9098039215686274 W1_359_1 + 0.0392156862745098 W1_360_1
   + 0.2941176470588235 W1_372_1 + 0.8784313725490196 W1_373_1
   + 0.996078431372549 W1_374_1 + 0.996078431372549 W1_375_1
   + 0.996078431372549 W1_376_1 + 0.996078431372549 W1_377_1
   + 0.996078431372549 W1_378_1 + 0.8352941176470589 W1_379_1
   + 0.7764705882352941 W1_380_1 + 0.7764705882352941 W1_381_1
   + 0.8470588235294118 W1_382_1 + 0.996078431372549 W1_383_1
   + 0.996078431372549 W1_384_1 + 0.996078431372549 W1_385_1
   + 0.592156862745098 W1_386_1 + 0.1647058823529412 W1_387_1
   + 0.0156862745098039 W1_399_1 + 0.3019607843137255 W1_400_1
   + 0.996078431372549 W1_401_1 + 0.996078431372549 W1_402_1
   + 0.996078431372549 W1_403_1 + 0.9568627450980393 W1_404_1
   + 0.6549019607843137 W1_405_1 + 0.2666666666666667 W1_406_1
   + 0.0705882352941176 W1_407_1 + 0.2862745098039216 W1_410_1
   + 0.9176470588235294 W1_411_1 + 0.9098039215686274 W1_412_1
   + 0.5607843137254902 W1_413_1 + 0.0274509803921569 W1_414_1
   + 0.4235294117647059 W1_427_1 + 0.996078431372549 W1_428_1
   + 0.996078431372549 W1_429_1 + 0.996078431372549 W1_430_1
   + 0.9568627450980393 W1_431_1 + 0.3686274509803922 W1_432_1
   + 0.807843137254902 W1_438_1 + 0.996078431372549 W1_439_1
   + 0.6313725490196078 W1_440_1 + 0.00784313725490196 W1_454_1
   + 0.6745098039215687 W1_455_1 + 0.996078431372549 W1_456_1
   + 0.996078431372549 W1_457_1 + 0.8196078431372549 W1_458_1
   + 0.3647058823529412 W1_459_1 + 0.2313725490196079 W1_465_1
   + 0.8627450980392157 W1_466_1 + 0.996078431372549 W1_467_1
   + 0.4901960784313725 W1_468_1 + 0.00784313725490196 W1_482_1
   + 0.6235294117647059 W1_483_1 + 0.996078431372549 W1_484_1
   + 0.9686274509803922 W1_485_1 + 0.2666666666666667 W1_486_1
   + 0.3882352941176471 W1_493_1 + 0.996078431372549 W1_494_1
   + 0.8901960784313725 W1_495_1 + 0.0980392156862745 W1_496_1
   + 0.0156862745098039 W1_510_1 + 0.7647058823529411 W1_511_1
   + 0.9372549019607843 W1_512_1 + 0.1529411764705882 W1_513_1
   + 0.2274509803921569 W1_520_1 + 0.8784313725490196 W1_521_1
   + 0.8431372549019608 W1_522_1 + 0.1686274509803922 W1_523_1
   + 0.0784313725490196 W1_539_1 + 0.3725490196078431 W1_540_1
   + 0.0901960784313725 W1_547_1 + 0.7764705882352941 W1_548_1
   + 0.996078431372549 W1_549_1 + 0.8823529411764706 W1_550_1
   + 0.1058823529411765 W1_551_1 + 0.3176470588235294 W1_575_1
   + 0.8784313725490196 W1_576_1 + 0.996078431372549 W1_577_1
   + 0.6784313725490196 W1_578_1 + 0.4431372549019608 W1_602_1
   + 0.9725490196078431 W1_603_1 + 0.996078431372549 W1_604_1
   + 0.7294117647058823 W1_605_1 + 0.0666666666666667 W1_606_1
   + 0.0901960784313725 W1_629_1 + 0.5607843137254902 W1_630_1
   + 0.996078431372549 W1_631_1 + 0.8784313725490196 W1_632_1
   + 0.396078431372549 W1_633_1 + 0.1058823529411765 W1_657_1
   + 0.8627450980392157 W1_658_1 + 0.996078431372549 W1_659_1
   + 0.2627450980392157 W1_660_1 + 0.7098039215686275 W1_686_1
   + 0.8784313725490196 W1_687_1 + 0.1254901960784314 W1_688_1
   - 20 sign_inner_15_1 >= -19.999
 sign_0_pkj_neg_15_1: W1_0_1 + 0.3176470588235294 W1_151_1
   + 0.5137254901960784 W1_152_1 + 0.1647058823529412 W1_153_1
   + 0.6823529411764706 W1_163_1 + 0.7764705882352941 W1_164_1
   + 0.0117647058823529 W1_165_1 + 0.1725490196078431 W1_179_1
   + 0.996078431372549 W1_180_1 + 0.5529411764705883 W1_181_1
   + 0.0470588235294118 W1_190_1 + 0.7058823529411765 W1_191_1
   + 0.7450980392156863 W1_192_1 + 0.0117647058823529 W1_193_1
   + 0.6352941176470588 W1_207_1 + 0.996078431372549 W1_208_1
   + 0.3529411764705883 W1_209_1 + 0.196078431372549 W1_217_1
   + 0.9490196078431372 W1_218_1 + 0.996078431372549 W1_219_1
   + 0.2941176470588235 W1_220_1 + 0.0156862745098039 W1_234_1
   + 0.6705882352941176 W1_235_1 + 0.9803921568627451 W1_236_1
   + 0.7215686274509804 W1_237_1 + 0.0392156862745098 W1_245_1
   + 0.9137254901960784 W1_246_1 + 0.9529411764705882 W1_247_1
   + 0.2431372549019608 W1_248_1 + 0.0627450980392157 W1_262_1
   + 0.8196078431372549 W1_263_1 + 0.9333333333333333 W1_264_1
   + 0.196078431372549 W1_265_1 + 0.392156862745098 W1_273_1 + W1_274_1
   + 0.5568627450980392 W1_275_1 + 0.4352941176470588 W1_290_1
   + 0.996078431372549 W1_291_1 + 0.9137254901960784 W1_292_1
   + 0.1607843137254902 W1_293_1 + 0.2352941176470588 W1_300_1
   + 0.7764705882352941 W1_301_1 + 0.996078431372549 W1_302_1
   + 0.3215686274509804 W1_303_1 + 0.1019607843137255 W1_317_1
   + 0.6784313725490196 W1_318_1 + 0.996078431372549 W1_319_1
   + 0.996078431372549 W1_320_1 + 0.7647058823529411 W1_321_1
   + 0.6588235294117647 W1_322_1 + 0.6588235294117647 W1_323_1
   + 0.6588235294117647 W1_324_1 + 0.6588235294117647 W1_325_1
   + 0.5019607843137255 W1_326_1 + 0.4156862745098039 W1_327_1
   + 0.7137254901960784 W1_328_1 + 0.996078431372549 W1_329_1
   + 0.996078431372549 W1_330_1 + 0.8470588235294118 W1_331_1
   + 0.0313725490196078 W1_332_1 + 0.3490196078431372 W1_345_1
   + 0.996078431372549 W1_346_1 + 0.996078431372549 W1_347_1
   + 0.996078431372549 W1_348_1 + 0.996078431372549 W1_349_1
   + 0.996078431372549 W1_350_1 + 0.996078431372549 W1_351_1
   + 0.996078431372549 W1_352_1 + 0.996078431372549 W1_353_1
   + 0.996078431372549 W1_354_1 + 0.996078431372549 W1_355_1
   + 0.996078431372549 W1_356_1 + 0.996078431372549 W1_357_1 + W1_358_1
   + 0.9098039215686274 W1_359_1 + 0.0392156862745098 W1_360_1
   + 0.2941176470588235 W1_372_1 + 0.8784313725490196 W1_373_1
   + 0.996078431372549 W1_374_1 + 0.996078431372549 W1_375_1
   + 0.996078431372549 W1_376_1 + 0.996078431372549 W1_377_1
   + 0.996078431372549 W1_378_1 + 0.8352941176470589 W1_379_1
   + 0.7764705882352941 W1_380_1 + 0.7764705882352941 W1_381_1
   + 0.8470588235294118 W1_382_1 + 0.996078431372549 W1_383_1
   + 0.996078431372549 W1_384_1 + 0.996078431372549 W1_385_1
   + 0.592156862745098 W1_386_1 + 0.1647058823529412 W1_387_1
   + 0.0156862745098039 W1_399_1 + 0.3019607843137255 W1_400_1
   + 0.996078431372549 W1_401_1 + 0.996078431372549 W1_402_1
   + 0.996078431372549 W1_403_1 + 0.9568627450980393 W1_404_1
   + 0.6549019607843137 W1_405_1 + 0.2666666666666667 W1_406_1
   + 0.0705882352941176 W1_407_1 + 0.2862745098039216 W1_410_1
   + 0.9176470588235294 W1_411_1 + 0.9098039215686274 W1_412_1
   + 0.5607843137254902 W1_413_1 + 0.0274509803921569 W1_414_1
   + 0.4235294117647059 W1_427_1 + 0.996078431372549 W1_428_1
   + 0.996078431372549 W1_429_1 + 0.996078431372549 W1_430_1
   + 0.9568627450980393 W1_431_1 + 0.3686274509803922 W1_432_1
   + 0.807843137254902 W1_438_1 + 0.996078431372549 W1_439_1
   + 0.6313725490196078 W1_440_1 + 0.00784313725490196 W1_454_1
   + 0.6745098039215687 W1_455_1 + 0.996078431372549 W1_456_1
   + 0.996078431372549 W1_457_1 + 0.8196078431372549 W1_458_1
   + 0.3647058823529412 W1_459_1 + 0.2313725490196079 W1_465_1
   + 0.8627450980392157 W1_466_1 + 0.996078431372549 W1_467_1
   + 0.4901960784313725 W1_468_1 + 0.00784313725490196 W1_482_1
   + 0.6235294117647059 W1_483_1 + 0.996078431372549 W1_484_1
   + 0.9686274509803922 W1_485_1 + 0.2666666666666667 W1_486_1
   + 0.3882352941176471 W1_493_1 + 0.996078431372549 W1_494_1
   + 0.8901960784313725 W1_495_1 + 0.0980392156862745 W1_496_1
   + 0.0156862745098039 W1_510_1 + 0.7647058823529411 W1_511_1
   + 0.9372549019607843 W1_512_1 + 0.1529411764705882 W1_513_1
   + 0.2274509803921569 W1_520_1 + 0.8784313725490196 W1_521_1
   + 0.8431372549019608 W1_522_1 + 0.1686274509803922 W1_523_1
   + 0.0784313725490196 W1_539_1 + 0.3725490196078431 W1_540_1
   + 0.0901960784313725 W1_547_1 + 0.7764705882352941 W1_548_1
   + 0.996078431372549 W1_549_1 + 0.8823529411764706 W1_550_1
   + 0.1058823529411765 W1_551_1 + 0.3176470588235294 W1_575_1
   + 0.8784313725490196 W1_576_1 + 0.996078431372549 W1_577_1
   + 0.6784313725490196 W1_578_1 + 0.4431372549019608 W1_602_1
   + 0.9725490196078431 W1_603_1 + 0.996078431372549 W1_604_1
   + 0.7294117647058823 W1_605_1 + 0.0666666666666667 W1_606_1
   + 0.0901960784313725 W1_629_1 + 0.5607843137254902 W1_630_1
   + 0.996078431372549 W1_631_1 + 0.8784313725490196 W1_632_1
   + 0.396078431372549 W1_633_1 + 0.1058823529411765 W1_657_1
   + 0.8627450980392157 W1_658_1 + 0.996078431372549 W1_659_1
   + 0.2627450980392157 W1_660_1 + 0.7098039215686275 W1_686_1
   + 0.8784313725490196 W1_687_1 + 0.1254901960784314 W1_688_1
   - 20 sign_inner_15_1 <= 0
 sign_1_pkj_pos_16_0: W1_0_0 + 0.0823529411764706 W1_178_0
   + 0.5098039215686274 W1_179_0 + 0.7450980392156863 W1_180_0
   + 0.996078431372549 W1_181_0 + 0.996078431372549 W1_182_0
   + 0.9803921568627451 W1_183_0 + 0.6862745098039216 W1_184_0
   + 0.5294117647058824 W1_185_0 + 0.3764705882352941 W1_186_0
   + 0.3764705882352941 W1_187_0 + 0.0627450980392157 W1_188_0
   + 0.0156862745098039 W1_189_0 + 0.1019607843137255 W1_203_0
   + 0.4 W1_204_0 + 0.7294117647058823 W1_205_0
   + 0.996078431372549 W1_206_0 + 0.996078431372549 W1_207_0
   + 0.9725490196078431 W1_208_0 + 0.8705882352941177 W1_209_0
   + 0.8705882352941177 W1_210_0 + 0.8823529411764706 W1_211_0
   + 0.996078431372549 W1_212_0 + 0.996078431372549 W1_213_0
   + 0.996078431372549 W1_214_0 + 0.996078431372549 W1_215_0
   + 0.996078431372549 W1_216_0 + 0.807843137254902 W1_217_0
   + 0.4392156862745098 W1_218_0 + 0.0156862745098039 W1_219_0
   + 0.8117647058823529 W1_231_0 + 0.996078431372549 W1_232_0
   + 0.996078431372549 W1_233_0 + 0.6941176470588235 W1_234_0
   + 0.4588235294117647 W1_235_0 + 0.1529411764705882 W1_236_0
   + 0.2196078431372549 W1_239_0 + 0.9725490196078431 W1_240_0
   + 0.4 W1_241_0 + 0.1882352941176471 W1_242_0
   + 0.1882352941176471 W1_243_0 + 0.403921568627451 W1_244_0
   + 0.7529411764705882 W1_245_0 + 0.996078431372549 W1_246_0
   + 0.5294117647058824 W1_247_0 + 0.3568627450980392 W1_259_0
   + 0.4352941176470588 W1_260_0 + 0.1411764705882353 W1_261_0
   + 0.2823529411764706 W1_267_0 + 0.3607843137254902 W1_268_0
   + 0.0470588235294118 W1_273_0 + 0.8784313725490196 W1_274_0
   + 0.8235294117647058 W1_275_0 + 0.0196078431372549 W1_276_0
   + 0.196078431372549 W1_299_0 + 0.5450980392156862 W1_300_0
   + 0.9411764705882353 W1_301_0 + 0.996078431372549 W1_302_0
   + 0.2588235294117647 W1_303_0 + 0.0274509803921569 W1_324_0
   + 0.4745098039215686 W1_325_0 + 0.8627450980392157 W1_326_0
   + 0.996078431372549 W1_327_0 + 0.9568627450980393 W1_328_0
   + 0.7607843137254902 W1_329_0 + 0.0588235294117647 W1_330_0
   + 0.0313725490196078 W1_344_0 + 0.4196078431372549 W1_345_0
   + 0.4392156862745098 W1_346_0 + 0.4392156862745098 W1_347_0
   + 0.4392156862745098 W1_348_0 + 0.3411764705882353 W1_349_0
   + 0.4392156862745098 W1_350_0 + 0.5529411764705883 W1_351_0
   + 0.8549019607843137 W1_352_0 + 0.9725490196078431 W1_353_0
   + 0.6941176470588235 W1_354_0 + 0.2666666666666667 W1_355_0
   + 0.0784313725490196 W1_356_0 + 0.3019607843137255 W1_372_0
   + 0.8666666666666667 W1_373_0 + 0.996078431372549 W1_374_0
   + 0.996078431372549 W1_375_0 + 0.996078431372549 W1_376_0
   + 0.996078431372549 W1_377_0 + 0.996078431372549 W1_378_0
   + 0.8823529411764706 W1_379_0 + 0.407843137254902 W1_380_0
   + 0.1529411764705882 W1_381_0 + 0.0392156862745098 W1_401_0
   + 0.1254901960784314 W1_402_0 + 0.1254901960784314 W1_403_0
   + 0.1254901960784314 W1_404_0 + 0.1254901960784314 W1_405_0
   + 0.5098039215686274 W1_406_0 + 0.8431372549019608 W1_407_0
   + 0.7647058823529411 W1_408_0 + 0.1843137254901961 W1_409_0
   + 0.0235294117647059 W1_435_0 + 0.4352941176470588 W1_436_0
   + 0.9058823529411765 W1_437_0 + 0.6823529411764706 W1_438_0
   + 0.0196078431372549 W1_439_0 + 0.1843137254901961 W1_454_0
   + 0.0705882352941176 W1_455_0 + 0.1568627450980392 W1_465_0
   + 0.8941176470588236 W1_466_0 + 0.803921568627451 W1_467_0
   + 0.1372549019607843 W1_468_0 + 0.0862745098039216 W1_481_0
   + 0.9176470588235294 W1_482_0 + 0.1647058823529412 W1_483_0
   + 0.2196078431372549 W1_494_0 + 0.8313725490196079 W1_495_0
   + 0.8862745098039215 W1_496_0 + 0.1490196078431373 W1_497_0
   + 0.3764705882352941 W1_509_0 + 0.615686274509804 W1_510_0
   + 0.1176470588235294 W1_523_0 + 0.8431372549019608 W1_524_0
   + 0.7372549019607844 W1_525_0 + 0.0352941176470588 W1_526_0
   + 0.3764705882352941 W1_537_0 + 0.5568627450980392 W1_538_0
   + 0.3372549019607843 W1_552_0 + 0.996078431372549 W1_553_0
   + 0.2666666666666667 W1_554_0 + 0.2784313725490196 W1_565_0
   + 0.792156862745098 W1_566_0 + 0.0588235294117647 W1_567_0
   + 0.0235294117647059 W1_580_0 + 0.8392156862745098 W1_581_0
   + 0.592156862745098 W1_582_0 + 0.0392156862745098 W1_593_0
   + 0.9058823529411765 W1_594_0 + 0.3372549019607843 W1_595_0
   + 0.00784313725490196 W1_596_0 + 0.7490196078431373 W1_609_0
   + 0.8117647058823529 W1_610_0 + 0.3647058823529412 W1_622_0
   + 0.9725490196078431 W1_623_0 + 0.5058823529411764 W1_624_0
   + 0.0274509803921569 W1_625_0 + 0.4588235294117647 W1_636_0
   + 0.9333333333333333 W1_637_0 + 0.4392156862745098 W1_638_0
   + 0.3686274509803922 W1_651_0 + 0.9725490196078431 W1_652_0
   + 0.8196078431372549 W1_653_0 + 0.2862745098039216 W1_654_0
   + 0.0470588235294118 W1_655_0 + 0.1647058823529412 W1_662_0
   + 0.5764705882352941 W1_663_0 + 0.9882352941176471 W1_664_0
   + 0.5333333333333333 W1_665_0 + 0.0352941176470588 W1_666_0
   + 0.1882352941176471 W1_680_0 + 0.6274509803921569 W1_681_0
   + 0.8431372549019608 W1_682_0 + 0.9019607843137255 W1_683_0
   + 0.6196078431372549 W1_684_0 + 0.2901960784313726 W1_685_0
   + 0.2509803921568627 W1_686_0 + 0.3686274509803922 W1_687_0
   + 0.6 W1_688_0 + 0.8745098039215686 W1_689_0
   + 0.9803921568627451 W1_690_0 + 0.8392156862745098 W1_691_0
   + 0.4117647058823529 W1_692_0 + 0.0431372549019608 W1_710_0
   + 0.5058823529411764 W1_711_0 + 0.7411764705882353 W1_712_0
   + 0.9176470588235294 W1_713_0 + 0.8784313725490196 W1_714_0 + W1_715_0
   + 0.7607843137254902 W1_716_0 + 0.5254901960784314 W1_717_0
   + 0.2941176470588235 W1_718_0 + 0.0235294117647059 W1_719_0
   - 20 sign_inner_16_0 >= -19.999
 sign_0_pkj_neg_16_0: W1_0_0 + 0.0823529411764706 W1_178_0
   + 0.5098039215686274 W1_179_0 + 0.7450980392156863 W1_180_0
   + 0.996078431372549 W1_181_0 + 0.996078431372549 W1_182_0
   + 0.9803921568627451 W1_183_0 + 0.6862745098039216 W1_184_0
   + 0.5294117647058824 W1_185_0 + 0.3764705882352941 W1_186_0
   + 0.3764705882352941 W1_187_0 + 0.0627450980392157 W1_188_0
   + 0.0156862745098039 W1_189_0 + 0.1019607843137255 W1_203_0
   + 0.4 W1_204_0 + 0.7294117647058823 W1_205_0
   + 0.996078431372549 W1_206_0 + 0.996078431372549 W1_207_0
   + 0.9725490196078431 W1_208_0 + 0.8705882352941177 W1_209_0
   + 0.8705882352941177 W1_210_0 + 0.8823529411764706 W1_211_0
   + 0.996078431372549 W1_212_0 + 0.996078431372549 W1_213_0
   + 0.996078431372549 W1_214_0 + 0.996078431372549 W1_215_0
   + 0.996078431372549 W1_216_0 + 0.807843137254902 W1_217_0
   + 0.4392156862745098 W1_218_0 + 0.0156862745098039 W1_219_0
   + 0.8117647058823529 W1_231_0 + 0.996078431372549 W1_232_0
   + 0.996078431372549 W1_233_0 + 0.6941176470588235 W1_234_0
   + 0.4588235294117647 W1_235_0 + 0.1529411764705882 W1_236_0
   + 0.2196078431372549 W1_239_0 + 0.9725490196078431 W1_240_0
   + 0.4 W1_241_0 + 0.1882352941176471 W1_242_0
   + 0.1882352941176471 W1_243_0 + 0.403921568627451 W1_244_0
   + 0.7529411764705882 W1_245_0 + 0.996078431372549 W1_246_0
   + 0.5294117647058824 W1_247_0 + 0.3568627450980392 W1_259_0
   + 0.4352941176470588 W1_260_0 + 0.1411764705882353 W1_261_0
   + 0.2823529411764706 W1_267_0 + 0.3607843137254902 W1_268_0
   + 0.0470588235294118 W1_273_0 + 0.8784313725490196 W1_274_0
   + 0.8235294117647058 W1_275_0 + 0.0196078431372549 W1_276_0
   + 0.196078431372549 W1_299_0 + 0.5450980392156862 W1_300_0
   + 0.9411764705882353 W1_301_0 + 0.996078431372549 W1_302_0
   + 0.2588235294117647 W1_303_0 + 0.0274509803921569 W1_324_0
   + 0.4745098039215686 W1_325_0 + 0.8627450980392157 W1_326_0
   + 0.996078431372549 W1_327_0 + 0.9568627450980393 W1_328_0
   + 0.7607843137254902 W1_329_0 + 0.0588235294117647 W1_330_0
   + 0.0313725490196078 W1_344_0 + 0.4196078431372549 W1_345_0
   + 0.4392156862745098 W1_346_0 + 0.4392156862745098 W1_347_0
   + 0.4392156862745098 W1_348_0 + 0.3411764705882353 W1_349_0
   + 0.4392156862745098 W1_350_0 + 0.5529411764705883 W1_351_0
   + 0.8549019607843137 W1_352_0 + 0.9725490196078431 W1_353_0
   + 0.6941176470588235 W1_354_0 + 0.2666666666666667 W1_355_0
   + 0.0784313725490196 W1_356_0 + 0.3019607843137255 W1_372_0
   + 0.8666666666666667 W1_373_0 + 0.996078431372549 W1_374_0
   + 0.996078431372549 W1_375_0 + 0.996078431372549 W1_376_0
   + 0.996078431372549 W1_377_0 + 0.996078431372549 W1_378_0
   + 0.8823529411764706 W1_379_0 + 0.407843137254902 W1_380_0
   + 0.1529411764705882 W1_381_0 + 0.0392156862745098 W1_401_0
   + 0.1254901960784314 W1_402_0 + 0.1254901960784314 W1_403_0
   + 0.1254901960784314 W1_404_0 + 0.1254901960784314 W1_405_0
   + 0.5098039215686274 W1_406_0 + 0.8431372549019608 W1_407_0
   + 0.7647058823529411 W1_408_0 + 0.1843137254901961 W1_409_0
   + 0.0235294117647059 W1_435_0 + 0.4352941176470588 W1_436_0
   + 0.9058823529411765 W1_437_0 + 0.6823529411764706 W1_438_0
   + 0.0196078431372549 W1_439_0 + 0.1843137254901961 W1_454_0
   + 0.0705882352941176 W1_455_0 + 0.1568627450980392 W1_465_0
   + 0.8941176470588236 W1_466_0 + 0.803921568627451 W1_467_0
   + 0.1372549019607843 W1_468_0 + 0.0862745098039216 W1_481_0
   + 0.9176470588235294 W1_482_0 + 0.1647058823529412 W1_483_0
   + 0.2196078431372549 W1_494_0 + 0.8313725490196079 W1_495_0
   + 0.8862745098039215 W1_496_0 + 0.1490196078431373 W1_497_0
   + 0.3764705882352941 W1_509_0 + 0.615686274509804 W1_510_0
   + 0.1176470588235294 W1_523_0 + 0.8431372549019608 W1_524_0
   + 0.7372549019607844 W1_525_0 + 0.0352941176470588 W1_526_0
   + 0.3764705882352941 W1_537_0 + 0.5568627450980392 W1_538_0
   + 0.3372549019607843 W1_552_0 + 0.996078431372549 W1_553_0
   + 0.2666666666666667 W1_554_0 + 0.2784313725490196 W1_565_0
   + 0.792156862745098 W1_566_0 + 0.0588235294117647 W1_567_0
   + 0.0235294117647059 W1_580_0 + 0.8392156862745098 W1_581_0
   + 0.592156862745098 W1_582_0 + 0.0392156862745098 W1_593_0
   + 0.9058823529411765 W1_594_0 + 0.3372549019607843 W1_595_0
   + 0.00784313725490196 W1_596_0 + 0.7490196078431373 W1_609_0
   + 0.8117647058823529 W1_610_0 + 0.3647058823529412 W1_622_0
   + 0.9725490196078431 W1_623_0 + 0.5058823529411764 W1_624_0
   + 0.0274509803921569 W1_625_0 + 0.4588235294117647 W1_636_0
   + 0.9333333333333333 W1_637_0 + 0.4392156862745098 W1_638_0
   + 0.3686274509803922 W1_651_0 + 0.9725490196078431 W1_652_0
   + 0.8196078431372549 W1_653_0 + 0.2862745098039216 W1_654_0
   + 0.0470588235294118 W1_655_0 + 0.1647058823529412 W1_662_0
   + 0.5764705882352941 W1_663_0 + 0.9882352941176471 W1_664_0
   + 0.5333333333333333 W1_665_0 + 0.0352941176470588 W1_666_0
   + 0.1882352941176471 W1_680_0 + 0.6274509803921569 W1_681_0
   + 0.8431372549019608 W1_682_0 + 0.9019607843137255 W1_683_0
   + 0.6196078431372549 W1_684_0 + 0.2901960784313726 W1_685_0
   + 0.2509803921568627 W1_686_0 + 0.3686274509803922 W1_687_0
   + 0.6 W1_688_0 + 0.8745098039215686 W1_689_0
   + 0.9803921568627451 W1_690_0 + 0.8392156862745098 W1_691_0
   + 0.4117647058823529 W1_692_0 + 0.0431372549019608 W1_710_0
   + 0.5058823529411764 W1_711_0 + 0.7411764705882353 W1_712_0
   + 0.9176470588235294 W1_713_0 + 0.8784313725490196 W1_714_0 + W1_715_0
   + 0.7607843137254902 W1_716_0 + 0.5254901960784314 W1_717_0
   + 0.2941176470588235 W1_718_0 + 0.0235294117647059 W1_719_0
   - 20 sign_inner_16_0 <= 0
 sign_1_pkj_pos_16_1: W1_0_1 + 0.0823529411764706 W1_178_1
   + 0.5098039215686274 W1_179_1 + 0.7450980392156863 W1_180_1
   + 0.996078431372549 W1_181_1 + 0.996078431372549 W1_182_1
   + 0.9803921568627451 W1_183_1 + 0.6862745098039216 W1_184_1
   + 0.5294117647058824 W1_185_1 + 0.3764705882352941 W1_186_1
   + 0.3764705882352941 W1_187_1 + 0.0627450980392157 W1_188_1
   + 0.0156862745098039 W1_189_1 + 0.1019607843137255 W1_203_1
   + 0.4 W1_204_1 + 0.7294117647058823 W1_205_1
   + 0.996078431372549 W1_206_1 + 0.996078431372549 W1_207_1
   + 0.9725490196078431 W1_208_1 + 0.8705882352941177 W1_209_1
   + 0.8705882352941177 W1_210_1 + 0.8823529411764706 W1_211_1
   + 0.996078431372549 W1_212_1 + 0.996078431372549 W1_213_1
   + 0.996078431372549 W1_214_1 + 0.996078431372549 W1_215_1
   + 0.996078431372549 W1_216_1 + 0.807843137254902 W1_217_1
   + 0.4392156862745098 W1_218_1 + 0.0156862745098039 W1_219_1
   + 0.8117647058823529 W1_231_1 + 0.996078431372549 W1_232_1
   + 0.996078431372549 W1_233_1 + 0.6941176470588235 W1_234_1
   + 0.4588235294117647 W1_235_1 + 0.1529411764705882 W1_236_1
   + 0.2196078431372549 W1_239_1 + 0.9725490196078431 W1_240_1
   + 0.4 W1_241_1 + 0.1882352941176471 W1_242_1
   + 0.1882352941176471 W1_243_1 + 0.403921568627451 W1_244_1
   + 0.7529411764705882 W1_245_1 + 0.996078431372549 W1_246_1
   + 0.5294117647058824 W1_247_1 + 0.3568627450980392 W1_259_1
   + 0.4352941176470588 W1_260_1 + 0.1411764705882353 W1_261_1
   + 0.2823529411764706 W1_267_1 + 0.3607843137254902 W1_268_1
   + 0.0470588235294118 W1_273_1 + 0.8784313725490196 W1_274_1
   + 0.8235294117647058 W1_275_1 + 0.0196078431372549 W1_276_1
   + 0.196078431372549 W1_299_1 + 0.5450980392156862 W1_300_1
   + 0.9411764705882353 W1_301_1 + 0.996078431372549 W1_302_1
   + 0.2588235294117647 W1_303_1 + 0.0274509803921569 W1_324_1
   + 0.4745098039215686 W1_325_1 + 0.8627450980392157 W1_326_1
   + 0.996078431372549 W1_327_1 + 0.9568627450980393 W1_328_1
   + 0.7607843137254902 W1_329_1 + 0.0588235294117647 W1_330_1
   + 0.0313725490196078 W1_344_1 + 0.4196078431372549 W1_345_1
   + 0.4392156862745098 W1_346_1 + 0.4392156862745098 W1_347_1
   + 0.4392156862745098 W1_348_1 + 0.3411764705882353 W1_349_1
   + 0.4392156862745098 W1_350_1 + 0.5529411764705883 W1_351_1
   + 0.8549019607843137 W1_352_1 + 0.9725490196078431 W1_353_1
   + 0.6941176470588235 W1_354_1 + 0.2666666666666667 W1_355_1
   + 0.0784313725490196 W1_356_1 + 0.3019607843137255 W1_372_1
   + 0.8666666666666667 W1_373_1 + 0.996078431372549 W1_374_1
   + 0.996078431372549 W1_375_1 + 0.996078431372549 W1_376_1
   + 0.996078431372549 W1_377_1 + 0.996078431372549 W1_378_1
   + 0.8823529411764706 W1_379_1 + 0.407843137254902 W1_380_1
   + 0.1529411764705882 W1_381_1 + 0.0392156862745098 W1_401_1
   + 0.1254901960784314 W1_402_1 + 0.1254901960784314 W1_403_1
   + 0.1254901960784314 W1_404_1 + 0.1254901960784314 W1_405_1
   + 0.5098039215686274 W1_406_1 + 0.8431372549019608 W1_407_1
   + 0.7647058823529411 W1_408_1 + 0.1843137254901961 W1_409_1
   + 0.0235294117647059 W1_435_1 + 0.4352941176470588 W1_436_1
   + 0.9058823529411765 W1_437_1 + 0.6823529411764706 W1_438_1
   + 0.0196078431372549 W1_439_1 + 0.1843137254901961 W1_454_1
   + 0.0705882352941176 W1_455_1 + 0.1568627450980392 W1_465_1
   + 0.8941176470588236 W1_466_1 + 0.803921568627451 W1_467_1
   + 0.1372549019607843 W1_468_1 + 0.0862745098039216 W1_481_1
   + 0.9176470588235294 W1_482_1 + 0.1647058823529412 W1_483_1
   + 0.2196078431372549 W1_494_1 + 0.8313725490196079 W1_495_1
   + 0.8862745098039215 W1_496_1 + 0.1490196078431373 W1_497_1
   + 0.3764705882352941 W1_509_1 + 0.615686274509804 W1_510_1
   + 0.1176470588235294 W1_523_1 + 0.8431372549019608 W1_524_1
   + 0.7372549019607844 W1_525_1 + 0.0352941176470588 W1_526_1
   + 0.3764705882352941 W1_537_1 + 0.5568627450980392 W1_538_1
   + 0.3372549019607843 W1_552_1 + 0.996078431372549 W1_553_1
   + 0.2666666666666667 W1_554_1 + 0.2784313725490196 W1_565_1
   + 0.792156862745098 W1_566_1 + 0.0588235294117647 W1_567_1
   + 0.0235294117647059 W1_580_1 + 0.8392156862745098 W1_581_1
   + 0.592156862745098 W1_582_1 + 0.0392156862745098 W1_593_1
   + 0.9058823529411765 W1_594_1 + 0.3372549019607843 W1_595_1
   + 0.00784313725490196 W1_596_1 + 0.7490196078431373 W1_609_1
   + 0.8117647058823529 W1_610_1 + 0.3647058823529412 W1_622_1
   + 0.9725490196078431 W1_623_1 + 0.5058823529411764 W1_624_1
   + 0.0274509803921569 W1_625_1 + 0.4588235294117647 W1_636_1
   + 0.9333333333333333 W1_637_1 + 0.4392156862745098 W1_638_1
   + 0.3686274509803922 W1_651_1 + 0.9725490196078431 W1_652_1
   + 0.8196078431372549 W1_653_1 + 0.2862745098039216 W1_654_1
   + 0.0470588235294118 W1_655_1 + 0.1647058823529412 W1_662_1
   + 0.5764705882352941 W1_663_1 + 0.9882352941176471 W1_664_1
   + 0.5333333333333333 W1_665_1 + 0.0352941176470588 W1_666_1
   + 0.1882352941176471 W1_680_1 + 0.6274509803921569 W1_681_1
   + 0.8431372549019608 W1_682_1 + 0.9019607843137255 W1_683_1
   + 0.6196078431372549 W1_684_1 + 0.2901960784313726 W1_685_1
   + 0.2509803921568627 W1_686_1 + 0.3686274509803922 W1_687_1
   + 0.6 W1_688_1 + 0.8745098039215686 W1_689_1
   + 0.9803921568627451 W1_690_1 + 0.8392156862745098 W1_691_1
   + 0.4117647058823529 W1_692_1 + 0.0431372549019608 W1_710_1
   + 0.5058823529411764 W1_711_1 + 0.7411764705882353 W1_712_1
   + 0.9176470588235294 W1_713_1 + 0.8784313725490196 W1_714_1 + W1_715_1
   + 0.7607843137254902 W1_716_1 + 0.5254901960784314 W1_717_1
   + 0.2941176470588235 W1_718_1 + 0.0235294117647059 W1_719_1
   - 20 sign_inner_16_1 >= -19.999
 sign_0_pkj_neg_16_1: W1_0_1 + 0.0823529411764706 W1_178_1
   + 0.5098039215686274 W1_179_1 + 0.7450980392156863 W1_180_1
   + 0.996078431372549 W1_181_1 + 0.996078431372549 W1_182_1
   + 0.9803921568627451 W1_183_1 + 0.6862745098039216 W1_184_1
   + 0.5294117647058824 W1_185_1 + 0.3764705882352941 W1_186_1
   + 0.3764705882352941 W1_187_1 + 0.0627450980392157 W1_188_1
   + 0.0156862745098039 W1_189_1 + 0.1019607843137255 W1_203_1
   + 0.4 W1_204_1 + 0.7294117647058823 W1_205_1
   + 0.996078431372549 W1_206_1 + 0.996078431372549 W1_207_1
   + 0.9725490196078431 W1_208_1 + 0.8705882352941177 W1_209_1
   + 0.8705882352941177 W1_210_1 + 0.8823529411764706 W1_211_1
   + 0.996078431372549 W1_212_1 + 0.996078431372549 W1_213_1
   + 0.996078431372549 W1_214_1 + 0.996078431372549 W1_215_1
   + 0.996078431372549 W1_216_1 + 0.807843137254902 W1_217_1
   + 0.4392156862745098 W1_218_1 + 0.0156862745098039 W1_219_1
   + 0.8117647058823529 W1_231_1 + 0.996078431372549 W1_232_1
   + 0.996078431372549 W1_233_1 + 0.6941176470588235 W1_234_1
   + 0.4588235294117647 W1_235_1 + 0.1529411764705882 W1_236_1
   + 0.2196078431372549 W1_239_1 + 0.9725490196078431 W1_240_1
   + 0.4 W1_241_1 + 0.1882352941176471 W1_242_1
   + 0.1882352941176471 W1_243_1 + 0.403921568627451 W1_244_1
   + 0.7529411764705882 W1_245_1 + 0.996078431372549 W1_246_1
   + 0.5294117647058824 W1_247_1 + 0.3568627450980392 W1_259_1
   + 0.4352941176470588 W1_260_1 + 0.1411764705882353 W1_261_1
   + 0.2823529411764706 W1_267_1 + 0.3607843137254902 W1_268_1
   + 0.0470588235294118 W1_273_1 + 0.8784313725490196 W1_274_1
   + 0.8235294117647058 W1_275_1 + 0.0196078431372549 W1_276_1
   + 0.196078431372549 W1_299_1 + 0.5450980392156862 W1_300_1
   + 0.9411764705882353 W1_301_1 + 0.996078431372549 W1_302_1
   + 0.2588235294117647 W1_303_1 + 0.0274509803921569 W1_324_1
   + 0.4745098039215686 W1_325_1 + 0.8627450980392157 W1_326_1
   + 0.996078431372549 W1_327_1 + 0.9568627450980393 W1_328_1
   + 0.7607843137254902 W1_329_1 + 0.0588235294117647 W1_330_1
   + 0.0313725490196078 W1_344_1 + 0.4196078431372549 W1_345_1
   + 0.4392156862745098 W1_346_1 + 0.4392156862745098 W1_347_1
   + 0.4392156862745098 W1_348_1 + 0.3411764705882353 W1_349_1
   + 0.4392156862745098 W1_350_1 + 0.5529411764705883 W1_351_1
   + 0.8549019607843137 W1_352_1 + 0.9725490196078431 W1_353_1
   + 0.6941176470588235 W1_354_1 + 0.2666666666666667 W1_355_1
   + 0.0784313725490196 W1_356_1 + 0.3019607843137255 W1_372_1
   + 0.8666666666666667 W1_373_1 + 0.996078431372549 W1_374_1
   + 0.996078431372549 W1_375_1 + 0.996078431372549 W1_376_1
   + 0.996078431372549 W1_377_1 + 0.996078431372549 W1_378_1
   + 0.8823529411764706 W1_379_1 + 0.407843137254902 W1_380_1
   + 0.1529411764705882 W1_381_1 + 0.0392156862745098 W1_401_1
   + 0.1254901960784314 W1_402_1 + 0.1254901960784314 W1_403_1
   + 0.1254901960784314 W1_404_1 + 0.1254901960784314 W1_405_1
   + 0.5098039215686274 W1_406_1 + 0.8431372549019608 W1_407_1
   + 0.7647058823529411 W1_408_1 + 0.1843137254901961 W1_409_1
   + 0.0235294117647059 W1_435_1 + 0.4352941176470588 W1_436_1
   + 0.9058823529411765 W1_437_1 + 0.6823529411764706 W1_438_1
   + 0.0196078431372549 W1_439_1 + 0.1843137254901961 W1_454_1
   + 0.0705882352941176 W1_455_1 + 0.1568627450980392 W1_465_1
   + 0.8941176470588236 W1_466_1 + 0.803921568627451 W1_467_1
   + 0.1372549019607843 W1_468_1 + 0.0862745098039216 W1_481_1
   + 0.9176470588235294 W1_482_1 + 0.1647058823529412 W1_483_1
   + 0.2196078431372549 W1_494_1 + 0.8313725490196079 W1_495_1
   + 0.8862745098039215 W1_496_1 + 0.1490196078431373 W1_497_1
   + 0.3764705882352941 W1_509_1 + 0.615686274509804 W1_510_1
   + 0.1176470588235294 W1_523_1 + 0.8431372549019608 W1_524_1
   + 0.7372549019607844 W1_525_1 + 0.0352941176470588 W1_526_1
   + 0.3764705882352941 W1_537_1 + 0.5568627450980392 W1_538_1
   + 0.3372549019607843 W1_552_1 + 0.996078431372549 W1_553_1
   + 0.2666666666666667 W1_554_1 + 0.2784313725490196 W1_565_1
   + 0.792156862745098 W1_566_1 + 0.0588235294117647 W1_567_1
   + 0.0235294117647059 W1_580_1 + 0.8392156862745098 W1_581_1
   + 0.592156862745098 W1_582_1 + 0.0392156862745098 W1_593_1
   + 0.9058823529411765 W1_594_1 + 0.3372549019607843 W1_595_1
   + 0.00784313725490196 W1_596_1 + 0.7490196078431373 W1_609_1
   + 0.8117647058823529 W1_610_1 + 0.3647058823529412 W1_622_1
   + 0.9725490196078431 W1_623_1 + 0.5058823529411764 W1_624_1
   + 0.0274509803921569 W1_625_1 + 0.4588235294117647 W1_636_1
   + 0.9333333333333333 W1_637_1 + 0.4392156862745098 W1_638_1
   + 0.3686274509803922 W1_651_1 + 0.9725490196078431 W1_652_1
   + 0.8196078431372549 W1_653_1 + 0.2862745098039216 W1_654_1
   + 0.0470588235294118 W1_655_1 + 0.1647058823529412 W1_662_1
   + 0.5764705882352941 W1_663_1 + 0.9882352941176471 W1_664_1
   + 0.5333333333333333 W1_665_1 + 0.0352941176470588 W1_666_1
   + 0.1882352941176471 W1_680_1 + 0.6274509803921569 W1_681_1
   + 0.8431372549019608 W1_682_1 + 0.9019607843137255 W1_683_1
   + 0.6196078431372549 W1_684_1 + 0.2901960784313726 W1_685_1
   + 0.2509803921568627 W1_686_1 + 0.3686274509803922 W1_687_1
   + 0.6 W1_688_1 + 0.8745098039215686 W1_689_1
   + 0.9803921568627451 W1_690_1 + 0.8392156862745098 W1_691_1
   + 0.4117647058823529 W1_692_1 + 0.0431372549019608 W1_710_1
   + 0.5058823529411764 W1_711_1 + 0.7411764705882353 W1_712_1
   + 0.9176470588235294 W1_713_1 + 0.8784313725490196 W1_714_1 + W1_715_1
   + 0.7607843137254902 W1_716_1 + 0.5254901960784314 W1_717_1
   + 0.2941176470588235 W1_718_1 + 0.0235294117647059 W1_719_1
   - 20 sign_inner_16_1 <= 0
 sign_1_pkj_pos_17_0: W1_0_0 + 0.0431372549019608 W1_147_0
   + 0.1686274509803922 W1_148_0 + 0.6509803921568628 W1_149_0
   + 0.9921568627450981 W1_150_0 + 0.611764705882353 W1_151_0
   + 0.5803921568627451 W1_152_0 + 0.5803921568627451 W1_153_0
   + 0.1686274509803922 W1_154_0 + 0.1686274509803922 W1_155_0
   + 0.1686274509803922 W1_156_0 + 0.0549019607843137 W1_157_0
   + 0.2509803921568627 W1_175_0 + 0.9882352941176471 W1_176_0
   + 0.9921568627450981 W1_177_0 + 0.9882352941176471 W1_178_0
   + 0.9882352941176471 W1_179_0 + 0.9882352941176471 W1_180_0
   + 0.9882352941176471 W1_181_0 + 0.9921568627450981 W1_182_0
   + 0.9882352941176471 W1_183_0 + 0.9882352941176471 W1_184_0
   + 0.8274509803921568 W1_185_0 + 0.4 W1_186_0
   + 0.1254901960784314 W1_203_0 + 0.8745098039215686 W1_204_0
   + 0.9921568627450981 W1_205_0 + 0.9882352941176471 W1_206_0
   + 0.5333333333333333 W1_207_0 + 0.7686274509803922 W1_208_0
   + 0.9411764705882353 W1_209_0 + 0.9921568627450981 W1_210_0
   + 0.9882352941176471 W1_211_0 + 0.9882352941176471 W1_212_0
   + 0.9882352941176471 W1_213_0 + 0.9882352941176471 W1_214_0
   + 0.8470588235294118 W1_215_0 + 0.3607843137254902 W1_216_0
   + 0.00784313725490196 W1_217_0 + 0.3137254901960784 W1_232_0
   + 0.8901960784313725 W1_233_0 + 0.9882352941176471 W1_234_0
   + 0.0823529411764706 W1_235_0 + 0.1372549019607843 W1_237_0
   + 0.4 W1_238_0 + 0.7411764705882353 W1_239_0
   + 0.7411764705882353 W1_240_0 + 0.9058823529411765 W1_241_0
   + 0.9882352941176471 W1_242_0 + 0.9921568627450981 W1_243_0
   + 0.9882352941176471 W1_244_0 + 0.1843137254901961 W1_245_0
   + 0.0980392156862745 W1_261_0 + 0.1647058823529412 W1_262_0
   + 0.0156862745098039 W1_263_0 + 0.1098039215686274 W1_269_0
   + 0.8549019607843137 W1_270_0 + 0.9921568627450981 W1_271_0
   + 0.9882352941176471 W1_272_0 + 0.4941176470588236 W1_273_0
   + 0.1215686274509804 W1_296_0 + 0.8549019607843137 W1_297_0
   + 0.9921568627450981 W1_298_0 + 0.996078431372549 W1_299_0
   + 0.9372549019607843 W1_300_0 + 0.0666666666666667 W1_301_0
   + 0.1137254901960784 W1_323_0 + 0.8352941176470589 W1_324_0
   + 0.9882352941176471 W1_325_0 + 0.9882352941176471 W1_326_0
   + 0.9372549019607843 W1_327_0 + 0.2666666666666667 W1_328_0
   + 0.0588235294117647 W1_348_0 + 0.2588235294117647 W1_349_0
   + 0.5686274509803921 W1_350_0 + 0.9372549019607843 W1_351_0
   + 0.9882352941176471 W1_352_0 + 0.9882352941176471 W1_353_0
   + 0.9882352941176471 W1_354_0 + 0.3254901960784314 W1_355_0
   + 0.0235294117647059 W1_356_0 + 0.1607843137254902 W1_375_0
   + 0.8823529411764706 W1_376_0 + 0.9882352941176471 W1_377_0
   + 0.9921568627450981 W1_378_0 + 0.9882352941176471 W1_379_0
   + 0.9882352941176471 W1_380_0 + 0.9882352941176471 W1_381_0
   + 0.9882352941176471 W1_382_0 + 0.9921568627450981 W1_383_0
   + 0.7411764705882353 W1_384_0 + 0.0549019607843137 W1_385_0
   + 0.6705882352941176 W1_403_0 + 0.9882352941176471 W1_404_0
   + 0.9882352941176471 W1_405_0 + 0.9921568627450981 W1_406_0
   + 0.6784313725490196 W1_407_0 + 0.7490196078431373 W1_408_0
   + 0.8509803921568627 W1_409_0 + 0.9882352941176471 W1_410_0
   + 0.9921568627450981 W1_411_0 + 0.9882352941176471 W1_412_0
   + 0.596078431372549 W1_413_0 + 0.2784313725490196 W1_432_0
   + 0.2431372549019608 W1_433_0 + 0.1764705882352941 W1_438_0
   + 0.9294117647058824 W1_439_0 + 0.9921568627450981 W1_440_0
   + 0.9098039215686274 W1_441_0 + 0.8901960784313725 W1_467_0
   + 0.9882352941176471 W1_468_0 + 0.9058823529411765 W1_469_0
   + 0.0352941176470588 W1_494_0 + 0.9921568627450981 W1_495_0
   + 0.9882352941176471 W1_496_0 + 0.9058823529411765 W1_497_0
   + 0.5176470588235295 W1_522_0 + 0.9921568627450981 W1_523_0
   + 0.9882352941176471 W1_524_0 + 0.6274509803921569 W1_525_0
   + 0.3843137254901961 W1_549_0 + 0.9647058823529412 W1_550_0
   + 0.9921568627450981 W1_551_0 + 0.9882352941176471 W1_552_0
   + 0.1490196078431373 W1_553_0 + 0.3647058823529412 W1_576_0
   + 0.8549019607843137 W1_577_0 + 0.9921568627450981 W1_578_0 + W1_579_0
   + 0.592156862745098 W1_580_0 + 0.3372549019607843 W1_602_0
   + 0.6431372549019608 W1_603_0 + 0.9686274509803922 W1_604_0
   + 0.9882352941176471 W1_605_0 + 0.9882352941176471 W1_606_0
   + 0.592156862745098 W1_607_0 + 0.0627450980392157 W1_608_0
   + 0.3215686274509804 W1_622_0 + 0.6313725490196078 W1_623_0
   + 0.3254901960784314 W1_624_0 + 0.5019607843137255 W1_625_0
   + 0.4980392156862745 W1_626_0 + 0.5294117647058824 W1_627_0
   + 0.9098039215686274 W1_628_0 + 0.9098039215686274 W1_629_0
   + 0.9921568627450981 W1_630_0 + 0.9882352941176471 W1_631_0
   + 0.9882352941176471 W1_632_0 + 0.9333333333333333 W1_633_0
   + 0.3882352941176471 W1_634_0 + 0.9098039215686274 W1_650_0
   + 0.9882352941176471 W1_651_0 + 0.9882352941176471 W1_652_0
   + 0.9921568627450981 W1_653_0 + 0.9882352941176471 W1_654_0
   + 0.9882352941176471 W1_655_0 + 0.9882352941176471 W1_656_0
   + 0.9882352941176471 W1_657_0 + 0.9921568627450981 W1_658_0
   + 0.9058823529411765 W1_659_0 + 0.5333333333333333 W1_660_0
   + 0.1098039215686274 W1_661_0 + 0.7372549019607844 W1_678_0
   + 0.9882352941176471 W1_679_0 + 0.9882352941176471 W1_680_0
   + 0.9921568627450981 W1_681_0 + 0.9882352941176471 W1_682_0
   + 0.9882352941176471 W1_683_0 + 0.8862745098039215 W1_684_0
   + 0.5764705882352941 W1_685_0 + 0.5058823529411764 W1_686_0
   + 0.1098039215686274 W1_687_0 - 20 sign_inner_17_0 >= -19.999
 sign_0_pkj_neg_17_0: W1_0_0 + 0.0431372549019608 W1_147_0
   + 0.1686274509803922 W1_148_0 + 0.6509803921568628 W1_149_0
   + 0.9921568627450981 W1_150_0 + 0.611764705882353 W1_151_0
   + 0.5803921568627451 W1_152_0 + 0.5803921568627451 W1_153_0
   + 0.1686274509803922 W1_154_0 + 0.1686274509803922 W1_155_0
   + 0.1686274509803922 W1_156_0 + 0.0549019607843137 W1_157_0
   + 0.2509803921568627 W1_175_0 + 0.9882352941176471 W1_176_0
   + 0.9921568627450981 W1_177_0 + 0.9882352941176471 W1_178_0
   + 0.9882352941176471 W1_179_0 + 0.9882352941176471 W1_180_0
   + 0.9882352941176471 W1_181_0 + 0.9921568627450981 W1_182_0
   + 0.9882352941176471 W1_183_0 + 0.9882352941176471 W1_184_0
   + 0.8274509803921568 W1_185_0 + 0.4 W1_186_0
   + 0.1254901960784314 W1_203_0 + 0.8745098039215686 W1_204_0
   + 0.9921568627450981 W1_205_0 + 0.9882352941176471 W1_206_0
   + 0.5333333333333333 W1_207_0 + 0.7686274509803922 W1_208_0
   + 0.9411764705882353 W1_209_0 + 0.9921568627450981 W1_210_0
   + 0.9882352941176471 W1_211_0 + 0.9882352941176471 W1_212_0
   + 0.9882352941176471 W1_213_0 + 0.9882352941176471 W1_214_0
   + 0.8470588235294118 W1_215_0 + 0.3607843137254902 W1_216_0
   + 0.00784313725490196 W1_217_0 + 0.3137254901960784 W1_232_0
   + 0.8901960784313725 W1_233_0 + 0.9882352941176471 W1_234_0
   + 0.0823529411764706 W1_235_0 + 0.1372549019607843 W1_237_0
   + 0.4 W1_238_0 + 0.7411764705882353 W1_239_0
   + 0.7411764705882353 W1_240_0 + 0.9058823529411765 W1_241_0
   + 0.9882352941176471 W1_242_0 + 0.9921568627450981 W1_243_0
   + 0.9882352941176471 W1_244_0 + 0.1843137254901961 W1_245_0
   + 0.0980392156862745 W1_261_0 + 0.1647058823529412 W1_262_0
   + 0.0156862745098039 W1_263_0 + 0.1098039215686274 W1_269_0
   + 0.8549019607843137 W1_270_0 + 0.9921568627450981 W1_271_0
   + 0.9882352941176471 W1_272_0 + 0.4941176470588236 W1_273_0
   + 0.1215686274509804 W1_296_0 + 0.8549019607843137 W1_297_0
   + 0.9921568627450981 W1_298_0 + 0.996078431372549 W1_299_0
   + 0.9372549019607843 W1_300_0 + 0.0666666666666667 W1_301_0
   + 0.1137254901960784 W1_323_0 + 0.8352941176470589 W1_324_0
   + 0.9882352941176471 W1_325_0 + 0.9882352941176471 W1_326_0
   + 0.9372549019607843 W1_327_0 + 0.2666666666666667 W1_328_0
   + 0.0588235294117647 W1_348_0 + 0.2588235294117647 W1_349_0
   + 0.5686274509803921 W1_350_0 + 0.9372549019607843 W1_351_0
   + 0.9882352941176471 W1_352_0 + 0.9882352941176471 W1_353_0
   + 0.9882352941176471 W1_354_0 + 0.3254901960784314 W1_355_0
   + 0.0235294117647059 W1_356_0 + 0.1607843137254902 W1_375_0
   + 0.8823529411764706 W1_376_0 + 0.9882352941176471 W1_377_0
   + 0.9921568627450981 W1_378_0 + 0.9882352941176471 W1_379_0
   + 0.9882352941176471 W1_380_0 + 0.9882352941176471 W1_381_0
   + 0.9882352941176471 W1_382_0 + 0.9921568627450981 W1_383_0
   + 0.7411764705882353 W1_384_0 + 0.0549019607843137 W1_385_0
   + 0.6705882352941176 W1_403_0 + 0.9882352941176471 W1_404_0
   + 0.9882352941176471 W1_405_0 + 0.9921568627450981 W1_406_0
   + 0.6784313725490196 W1_407_0 + 0.7490196078431373 W1_408_0
   + 0.8509803921568627 W1_409_0 + 0.9882352941176471 W1_410_0
   + 0.9921568627450981 W1_411_0 + 0.9882352941176471 W1_412_0
   + 0.596078431372549 W1_413_0 + 0.2784313725490196 W1_432_0
   + 0.2431372549019608 W1_433_0 + 0.1764705882352941 W1_438_0
   + 0.9294117647058824 W1_439_0 + 0.9921568627450981 W1_440_0
   + 0.9098039215686274 W1_441_0 + 0.8901960784313725 W1_467_0
   + 0.9882352941176471 W1_468_0 + 0.9058823529411765 W1_469_0
   + 0.0352941176470588 W1_494_0 + 0.9921568627450981 W1_495_0
   + 0.9882352941176471 W1_496_0 + 0.9058823529411765 W1_497_0
   + 0.5176470588235295 W1_522_0 + 0.9921568627450981 W1_523_0
   + 0.9882352941176471 W1_524_0 + 0.6274509803921569 W1_525_0
   + 0.3843137254901961 W1_549_0 + 0.9647058823529412 W1_550_0
   + 0.9921568627450981 W1_551_0 + 0.9882352941176471 W1_552_0
   + 0.1490196078431373 W1_553_0 + 0.3647058823529412 W1_576_0
   + 0.8549019607843137 W1_577_0 + 0.9921568627450981 W1_578_0 + W1_579_0
   + 0.592156862745098 W1_580_0 + 0.3372549019607843 W1_602_0
   + 0.6431372549019608 W1_603_0 + 0.9686274509803922 W1_604_0
   + 0.9882352941176471 W1_605_0 + 0.9882352941176471 W1_606_0
   + 0.592156862745098 W1_607_0 + 0.0627450980392157 W1_608_0
   + 0.3215686274509804 W1_622_0 + 0.6313725490196078 W1_623_0
   + 0.3254901960784314 W1_624_0 + 0.5019607843137255 W1_625_0
   + 0.4980392156862745 W1_626_0 + 0.5294117647058824 W1_627_0
   + 0.9098039215686274 W1_628_0 + 0.9098039215686274 W1_629_0
   + 0.9921568627450981 W1_630_0 + 0.9882352941176471 W1_631_0
   + 0.9882352941176471 W1_632_0 + 0.9333333333333333 W1_633_0
   + 0.3882352941176471 W1_634_0 + 0.9098039215686274 W1_650_0
   + 0.9882352941176471 W1_651_0 + 0.9882352941176471 W1_652_0
   + 0.9921568627450981 W1_653_0 + 0.9882352941176471 W1_654_0
   + 0.9882352941176471 W1_655_0 + 0.9882352941176471 W1_656_0
   + 0.9882352941176471 W1_657_0 + 0.9921568627450981 W1_658_0
   + 0.9058823529411765 W1_659_0 + 0.5333333333333333 W1_660_0
   + 0.1098039215686274 W1_661_0 + 0.7372549019607844 W1_678_0
   + 0.9882352941176471 W1_679_0 + 0.9882352941176471 W1_680_0
   + 0.9921568627450981 W1_681_0 + 0.9882352941176471 W1_682_0
   + 0.9882352941176471 W1_683_0 + 0.8862745098039215 W1_684_0
   + 0.5764705882352941 W1_685_0 + 0.5058823529411764 W1_686_0
   + 0.1098039215686274 W1_687_0 - 20 sign_inner_17_0 <= 0
 sign_1_pkj_pos_17_1: W1_0_1 + 0.0431372549019608 W1_147_1
   + 0.1686274509803922 W1_148_1 + 0.6509803921568628 W1_149_1
   + 0.9921568627450981 W1_150_1 + 0.611764705882353 W1_151_1
   + 0.5803921568627451 W1_152_1 + 0.5803921568627451 W1_153_1
   + 0.1686274509803922 W1_154_1 + 0.1686274509803922 W1_155_1
   + 0.1686274509803922 W1_156_1 + 0.0549019607843137 W1_157_1
   + 0.2509803921568627 W1_175_1 + 0.9882352941176471 W1_176_1
   + 0.9921568627450981 W1_177_1 + 0.9882352941176471 W1_178_1
   + 0.9882352941176471 W1_179_1 + 0.9882352941176471 W1_180_1
   + 0.9882352941176471 W1_181_1 + 0.9921568627450981 W1_182_1
   + 0.9882352941176471 W1_183_1 + 0.9882352941176471 W1_184_1
   + 0.8274509803921568 W1_185_1 + 0.4 W1_186_1
   + 0.1254901960784314 W1_203_1 + 0.8745098039215686 W1_204_1
   + 0.9921568627450981 W1_205_1 + 0.9882352941176471 W1_206_1
   + 0.5333333333333333 W1_207_1 + 0.7686274509803922 W1_208_1
   + 0.9411764705882353 W1_209_1 + 0.9921568627450981 W1_210_1
   + 0.9882352941176471 W1_211_1 + 0.9882352941176471 W1_212_1
   + 0.9882352941176471 W1_213_1 + 0.9882352941176471 W1_214_1
   + 0.8470588235294118 W1_215_1 + 0.3607843137254902 W1_216_1
   + 0.00784313725490196 W1_217_1 + 0.3137254901960784 W1_232_1
   + 0.8901960784313725 W1_233_1 + 0.9882352941176471 W1_234_1
   + 0.0823529411764706 W1_235_1 + 0.1372549019607843 W1_237_1
   + 0.4 W1_238_1 + 0.7411764705882353 W1_239_1
   + 0.7411764705882353 W1_240_1 + 0.9058823529411765 W1_241_1
   + 0.9882352941176471 W1_242_1 + 0.9921568627450981 W1_243_1
   + 0.9882352941176471 W1_244_1 + 0.1843137254901961 W1_245_1
   + 0.0980392156862745 W1_261_1 + 0.1647058823529412 W1_262_1
   + 0.0156862745098039 W1_263_1 + 0.1098039215686274 W1_269_1
   + 0.8549019607843137 W1_270_1 + 0.9921568627450981 W1_271_1
   + 0.9882352941176471 W1_272_1 + 0.4941176470588236 W1_273_1
   + 0.1215686274509804 W1_296_1 + 0.8549019607843137 W1_297_1
   + 0.9921568627450981 W1_298_1 + 0.996078431372549 W1_299_1
   + 0.9372549019607843 W1_300_1 + 0.0666666666666667 W1_301_1
   + 0.1137254901960784 W1_323_1 + 0.8352941176470589 W1_324_1
   + 0.9882352941176471 W1_325_1 + 0.9882352941176471 W1_326_1
   + 0.9372549019607843 W1_327_1 + 0.2666666666666667 W1_328_1
   + 0.0588235294117647 W1_348_1 + 0.2588235294117647 W1_349_1
   + 0.5686274509803921 W1_350_1 + 0.9372549019607843 W1_351_1
   + 0.9882352941176471 W1_352_1 + 0.9882352941176471 W1_353_1
   + 0.9882352941176471 W1_354_1 + 0.3254901960784314 W1_355_1
   + 0.0235294117647059 W1_356_1 + 0.1607843137254902 W1_375_1
   + 0.8823529411764706 W1_376_1 + 0.9882352941176471 W1_377_1
   + 0.9921568627450981 W1_378_1 + 0.9882352941176471 W1_379_1
   + 0.9882352941176471 W1_380_1 + 0.9882352941176471 W1_381_1
   + 0.9882352941176471 W1_382_1 + 0.9921568627450981 W1_383_1
   + 0.7411764705882353 W1_384_1 + 0.0549019607843137 W1_385_1
   + 0.6705882352941176 W1_403_1 + 0.9882352941176471 W1_404_1
   + 0.9882352941176471 W1_405_1 + 0.9921568627450981 W1_406_1
   + 0.6784313725490196 W1_407_1 + 0.7490196078431373 W1_408_1
   + 0.8509803921568627 W1_409_1 + 0.9882352941176471 W1_410_1
   + 0.9921568627450981 W1_411_1 + 0.9882352941176471 W1_412_1
   + 0.596078431372549 W1_413_1 + 0.2784313725490196 W1_432_1
   + 0.2431372549019608 W1_433_1 + 0.1764705882352941 W1_438_1
   + 0.9294117647058824 W1_439_1 + 0.9921568627450981 W1_440_1
   + 0.9098039215686274 W1_441_1 + 0.8901960784313725 W1_467_1
   + 0.9882352941176471 W1_468_1 + 0.9058823529411765 W1_469_1
   + 0.0352941176470588 W1_494_1 + 0.9921568627450981 W1_495_1
   + 0.9882352941176471 W1_496_1 + 0.9058823529411765 W1_497_1
   + 0.5176470588235295 W1_522_1 + 0.9921568627450981 W1_523_1
   + 0.9882352941176471 W1_524_1 + 0.6274509803921569 W1_525_1
   + 0.3843137254901961 W1_549_1 + 0.9647058823529412 W1_550_1
   + 0.9921568627450981 W1_551_1 + 0.9882352941176471 W1_552_1
   + 0.1490196078431373 W1_553_1 + 0.3647058823529412 W1_576_1
   + 0.8549019607843137 W1_577_1 + 0.9921568627450981 W1_578_1 + W1_579_1
   + 0.592156862745098 W1_580_1 + 0.3372549019607843 W1_602_1
   + 0.6431372549019608 W1_603_1 + 0.9686274509803922 W1_604_1
   + 0.9882352941176471 W1_605_1 + 0.9882352941176471 W1_606_1
   + 0.592156862745098 W1_607_1 + 0.0627450980392157 W1_608_1
   + 0.3215686274509804 W1_622_1 + 0.6313725490196078 W1_623_1
   + 0.3254901960784314 W1_624_1 + 0.5019607843137255 W1_625_1
   + 0.4980392156862745 W1_626_1 + 0.5294117647058824 W1_627_1
   + 0.9098039215686274 W1_628_1 + 0.9098039215686274 W1_629_1
   + 0.9921568627450981 W1_630_1 + 0.9882352941176471 W1_631_1
   + 0.9882352941176471 W1_632_1 + 0.9333333333333333 W1_633_1
   + 0.3882352941176471 W1_634_1 + 0.9098039215686274 W1_650_1
   + 0.9882352941176471 W1_651_1 + 0.9882352941176471 W1_652_1
   + 0.9921568627450981 W1_653_1 + 0.9882352941176471 W1_654_1
   + 0.9882352941176471 W1_655_1 + 0.9882352941176471 W1_656_1
   + 0.9882352941176471 W1_657_1 + 0.9921568627450981 W1_658_1
   + 0.9058823529411765 W1_659_1 + 0.5333333333333333 W1_660_1
   + 0.1098039215686274 W1_661_1 + 0.7372549019607844 W1_678_1
   + 0.9882352941176471 W1_679_1 + 0.9882352941176471 W1_680_1
   + 0.9921568627450981 W1_681_1 + 0.9882352941176471 W1_682_1
   + 0.9882352941176471 W1_683_1 + 0.8862745098039215 W1_684_1
   + 0.5764705882352941 W1_685_1 + 0.5058823529411764 W1_686_1
   + 0.1098039215686274 W1_687_1 - 20 sign_inner_17_1 >= -19.999
 sign_0_pkj_neg_17_1: W1_0_1 + 0.0431372549019608 W1_147_1
   + 0.1686274509803922 W1_148_1 + 0.6509803921568628 W1_149_1
   + 0.9921568627450981 W1_150_1 + 0.611764705882353 W1_151_1
   + 0.5803921568627451 W1_152_1 + 0.5803921568627451 W1_153_1
   + 0.1686274509803922 W1_154_1 + 0.1686274509803922 W1_155_1
   + 0.1686274509803922 W1_156_1 + 0.0549019607843137 W1_157_1
   + 0.2509803921568627 W1_175_1 + 0.9882352941176471 W1_176_1
   + 0.9921568627450981 W1_177_1 + 0.9882352941176471 W1_178_1
   + 0.9882352941176471 W1_179_1 + 0.9882352941176471 W1_180_1
   + 0.9882352941176471 W1_181_1 + 0.9921568627450981 W1_182_1
   + 0.9882352941176471 W1_183_1 + 0.9882352941176471 W1_184_1
   + 0.8274509803921568 W1_185_1 + 0.4 W1_186_1
   + 0.1254901960784314 W1_203_1 + 0.8745098039215686 W1_204_1
   + 0.9921568627450981 W1_205_1 + 0.9882352941176471 W1_206_1
   + 0.5333333333333333 W1_207_1 + 0.7686274509803922 W1_208_1
   + 0.9411764705882353 W1_209_1 + 0.9921568627450981 W1_210_1
   + 0.9882352941176471 W1_211_1 + 0.9882352941176471 W1_212_1
   + 0.9882352941176471 W1_213_1 + 0.9882352941176471 W1_214_1
   + 0.8470588235294118 W1_215_1 + 0.3607843137254902 W1_216_1
   + 0.00784313725490196 W1_217_1 + 0.3137254901960784 W1_232_1
   + 0.8901960784313725 W1_233_1 + 0.9882352941176471 W1_234_1
   + 0.0823529411764706 W1_235_1 + 0.1372549019607843 W1_237_1
   + 0.4 W1_238_1 + 0.7411764705882353 W1_239_1
   + 0.7411764705882353 W1_240_1 + 0.9058823529411765 W1_241_1
   + 0.9882352941176471 W1_242_1 + 0.9921568627450981 W1_243_1
   + 0.9882352941176471 W1_244_1 + 0.1843137254901961 W1_245_1
   + 0.0980392156862745 W1_261_1 + 0.1647058823529412 W1_262_1
   + 0.0156862745098039 W1_263_1 + 0.1098039215686274 W1_269_1
   + 0.8549019607843137 W1_270_1 + 0.9921568627450981 W1_271_1
   + 0.9882352941176471 W1_272_1 + 0.4941176470588236 W1_273_1
   + 0.1215686274509804 W1_296_1 + 0.8549019607843137 W1_297_1
   + 0.9921568627450981 W1_298_1 + 0.996078431372549 W1_299_1
   + 0.9372549019607843 W1_300_1 + 0.0666666666666667 W1_301_1
   + 0.1137254901960784 W1_323_1 + 0.8352941176470589 W1_324_1
   + 0.9882352941176471 W1_325_1 + 0.9882352941176471 W1_326_1
   + 0.9372549019607843 W1_327_1 + 0.2666666666666667 W1_328_1
   + 0.0588235294117647 W1_348_1 + 0.2588235294117647 W1_349_1
   + 0.5686274509803921 W1_350_1 + 0.9372549019607843 W1_351_1
   + 0.9882352941176471 W1_352_1 + 0.9882352941176471 W1_353_1
   + 0.9882352941176471 W1_354_1 + 0.3254901960784314 W1_355_1
   + 0.0235294117647059 W1_356_1 + 0.1607843137254902 W1_375_1
   + 0.8823529411764706 W1_376_1 + 0.9882352941176471 W1_377_1
   + 0.9921568627450981 W1_378_1 + 0.9882352941176471 W1_379_1
   + 0.9882352941176471 W1_380_1 + 0.9882352941176471 W1_381_1
   + 0.9882352941176471 W1_382_1 + 0.9921568627450981 W1_383_1
   + 0.7411764705882353 W1_384_1 + 0.0549019607843137 W1_385_1
   + 0.6705882352941176 W1_403_1 + 0.9882352941176471 W1_404_1
   + 0.9882352941176471 W1_405_1 + 0.9921568627450981 W1_406_1
   + 0.6784313725490196 W1_407_1 + 0.7490196078431373 W1_408_1
   + 0.8509803921568627 W1_409_1 + 0.9882352941176471 W1_410_1
   + 0.9921568627450981 W1_411_1 + 0.9882352941176471 W1_412_1
   + 0.596078431372549 W1_413_1 + 0.2784313725490196 W1_432_1
   + 0.2431372549019608 W1_433_1 + 0.1764705882352941 W1_438_1
   + 0.9294117647058824 W1_439_1 + 0.9921568627450981 W1_440_1
   + 0.9098039215686274 W1_441_1 + 0.8901960784313725 W1_467_1
   + 0.9882352941176471 W1_468_1 + 0.9058823529411765 W1_469_1
   + 0.0352941176470588 W1_494_1 + 0.9921568627450981 W1_495_1
   + 0.9882352941176471 W1_496_1 + 0.9058823529411765 W1_497_1
   + 0.5176470588235295 W1_522_1 + 0.9921568627450981 W1_523_1
   + 0.9882352941176471 W1_524_1 + 0.6274509803921569 W1_525_1
   + 0.3843137254901961 W1_549_1 + 0.9647058823529412 W1_550_1
   + 0.9921568627450981 W1_551_1 + 0.9882352941176471 W1_552_1
   + 0.1490196078431373 W1_553_1 + 0.3647058823529412 W1_576_1
   + 0.8549019607843137 W1_577_1 + 0.9921568627450981 W1_578_1 + W1_579_1
   + 0.592156862745098 W1_580_1 + 0.3372549019607843 W1_602_1
   + 0.6431372549019608 W1_603_1 + 0.9686274509803922 W1_604_1
   + 0.9882352941176471 W1_605_1 + 0.9882352941176471 W1_606_1
   + 0.592156862745098 W1_607_1 + 0.0627450980392157 W1_608_1
   + 0.3215686274509804 W1_622_1 + 0.6313725490196078 W1_623_1
   + 0.3254901960784314 W1_624_1 + 0.5019607843137255 W1_625_1
   + 0.4980392156862745 W1_626_1 + 0.5294117647058824 W1_627_1
   + 0.9098039215686274 W1_628_1 + 0.9098039215686274 W1_629_1
   + 0.9921568627450981 W1_630_1 + 0.9882352941176471 W1_631_1
   + 0.9882352941176471 W1_632_1 + 0.9333333333333333 W1_633_1
   + 0.3882352941176471 W1_634_1 + 0.9098039215686274 W1_650_1
   + 0.9882352941176471 W1_651_1 + 0.9882352941176471 W1_652_1
   + 0.9921568627450981 W1_653_1 + 0.9882352941176471 W1_654_1
   + 0.9882352941176471 W1_655_1 + 0.9882352941176471 W1_656_1
   + 0.9882352941176471 W1_657_1 + 0.9921568627450981 W1_658_1
   + 0.9058823529411765 W1_659_1 + 0.5333333333333333 W1_660_1
   + 0.1098039215686274 W1_661_1 + 0.7372549019607844 W1_678_1
   + 0.9882352941176471 W1_679_1 + 0.9882352941176471 W1_680_1
   + 0.9921568627450981 W1_681_1 + 0.9882352941176471 W1_682_1
   + 0.9882352941176471 W1_683_1 + 0.8862745098039215 W1_684_1
   + 0.5764705882352941 W1_685_1 + 0.5058823529411764 W1_686_1
   + 0.1098039215686274 W1_687_1 - 20 sign_inner_17_1 <= 0
 sign_1_pkj_pos_18_0: W1_0_0 + 0.2509803921568627 W1_145_0
   + 0.5019607843137255 W1_146_0 + W1_147_0 + 0.7490196078431373 W1_148_0
   + 0.2509803921568627 W1_149_0 + 0.2509803921568627 W1_172_0
   + 0.7490196078431373 W1_173_0 + W1_174_0 + W1_175_0 + W1_176_0
   + 0.7490196078431373 W1_177_0 + 0.7490196078431373 W1_200_0 + W1_201_0
   + W1_202_0 + W1_203_0 + W1_204_0 + W1_205_0 + W1_206_0 + W1_207_0
   + 0.7490196078431373 W1_208_0 + 0.7490196078431373 W1_209_0
   + 0.7490196078431373 W1_210_0 + 0.5019607843137255 W1_211_0
   + 0.5019607843137255 W1_212_0 + 0.5019607843137255 W1_213_0
   + 0.5019607843137255 W1_228_0 + W1_229_0 + W1_230_0 + W1_231_0
   + W1_232_0 + W1_233_0 + W1_234_0 + W1_235_0 + W1_236_0 + W1_237_0
   + W1_238_0 + W1_239_0 + W1_240_0 + W1_241_0 + W1_242_0 + W1_243_0
   + 0.5019607843137255 W1_244_0 + 0.5019607843137255 W1_258_0
   + 0.5019607843137255 W1_259_0 + 0.7490196078431373 W1_260_0
   + 0.5019607843137255 W1_261_0 + 0.5019607843137255 W1_262_0
   + 0.7490196078431373 W1_263_0 + W1_264_0 + W1_265_0 + W1_266_0
   + W1_267_0 + W1_268_0 + W1_269_0 + W1_270_0 + W1_271_0
   + 0.7490196078431373 W1_272_0 + 0.7490196078431373 W1_295_0 + W1_296_0
   + W1_297_0 + W1_298_0 + W1_299_0 + 0.5019607843137255 W1_300_0
   + 0.5019607843137255 W1_321_0 + W1_322_0 + W1_323_0 + W1_324_0
   + W1_325_0 + W1_326_0 + 0.7490196078431373 W1_327_0
   + 0.5019607843137255 W1_348_0 + W1_349_0 + W1_350_0 + W1_351_0
   + W1_352_0 + W1_353_0 + 0.5019607843137255 W1_354_0
   + 0.2509803921568627 W1_376_0 + W1_377_0 + W1_378_0 + W1_379_0
   + W1_380_0 + W1_381_0 + 0.5019607843137255 W1_405_0 + W1_406_0
   + W1_407_0 + W1_408_0 + W1_409_0 + W1_410_0
   + 0.7490196078431373 W1_411_0 + 0.2509803921568627 W1_412_0 + W1_435_0
   + W1_436_0 + W1_437_0 + W1_438_0 + W1_439_0 + W1_440_0
   + 0.5019607843137255 W1_464_0 + 0.7490196078431373 W1_465_0 + W1_466_0
   + W1_467_0 + W1_468_0 + W1_469_0 + 0.2509803921568627 W1_494_0
   + 0.7490196078431373 W1_495_0 + W1_496_0 + W1_497_0
   + 0.7490196078431373 W1_498_0 + 0.2509803921568627 W1_514_0
   + 0.5019607843137255 W1_515_0 + 0.5019607843137255 W1_516_0
   + 0.2509803921568627 W1_523_0 + W1_524_0 + W1_525_0 + W1_526_0
   + 0.2509803921568627 W1_527_0 + 0.7490196078431373 W1_542_0 + W1_543_0
   + 0.5019607843137255 W1_544_0 + 0.2509803921568627 W1_551_0 + W1_552_0
   + W1_553_0 + W1_554_0 + 0.2509803921568627 W1_555_0
   + 0.2509803921568627 W1_569_0 + W1_570_0 + W1_571_0
   + 0.2509803921568627 W1_572_0 + 0.7490196078431373 W1_579_0 + W1_580_0
   + W1_581_0 + W1_582_0 + 0.2509803921568627 W1_583_0 + W1_598_0
   + W1_599_0 + 0.7490196078431373 W1_600_0 + 0.2509803921568627 W1_601_0
   + 0.2509803921568627 W1_605_0 + 0.7490196078431373 W1_606_0 + W1_607_0
   + W1_608_0 + W1_609_0 + 0.2509803921568627 W1_610_0
   + 0.2509803921568627 W1_626_0 + W1_627_0 + W1_628_0 + W1_629_0
   + W1_630_0 + W1_631_0 + W1_632_0 + W1_633_0 + W1_634_0 + W1_635_0
   + W1_636_0 + 0.7490196078431373 W1_637_0 + 0.2509803921568627 W1_638_0
   + W1_656_0 + W1_657_0 + W1_658_0 + W1_659_0 + W1_660_0 + W1_661_0
   + W1_662_0 + W1_663_0 + 0.7490196078431373 W1_664_0
   + 0.2509803921568627 W1_685_0 + W1_686_0 + W1_687_0
   + 0.7490196078431373 W1_688_0 + 0.5019607843137255 W1_689_0
   + 0.5019607843137255 W1_690_0 + 0.2509803921568627 W1_691_0
   - 20 sign_inner_18_0 >= -19.999
 sign_0_pkj_neg_18_0: W1_0_0 + 0.2509803921568627 W1_145_0
   + 0.5019607843137255 W1_146_0 + W1_147_0 + 0.7490196078431373 W1_148_0
   + 0.2509803921568627 W1_149_0 + 0.2509803921568627 W1_172_0
   + 0.7490196078431373 W1_173_0 + W1_174_0 + W1_175_0 + W1_176_0
   + 0.7490196078431373 W1_177_0 + 0.7490196078431373 W1_200_0 + W1_201_0
   + W1_202_0 + W1_203_0 + W1_204_0 + W1_205_0 + W1_206_0 + W1_207_0
   + 0.7490196078431373 W1_208_0 + 0.7490196078431373 W1_209_0
   + 0.7490196078431373 W1_210_0 + 0.5019607843137255 W1_211_0
   + 0.5019607843137255 W1_212_0 + 0.5019607843137255 W1_213_0
   + 0.5019607843137255 W1_228_0 + W1_229_0 + W1_230_0 + W1_231_0
   + W1_232_0 + W1_233_0 + W1_234_0 + W1_235_0 + W1_236_0 + W1_237_0
   + W1_238_0 + W1_239_0 + W1_240_0 + W1_241_0 + W1_242_0 + W1_243_0
   + 0.5019607843137255 W1_244_0 + 0.5019607843137255 W1_258_0
   + 0.5019607843137255 W1_259_0 + 0.7490196078431373 W1_260_0
   + 0.5019607843137255 W1_261_0 + 0.5019607843137255 W1_262_0
   + 0.7490196078431373 W1_263_0 + W1_264_0 + W1_265_0 + W1_266_0
   + W1_267_0 + W1_268_0 + W1_269_0 + W1_270_0 + W1_271_0
   + 0.7490196078431373 W1_272_0 + 0.7490196078431373 W1_295_0 + W1_296_0
   + W1_297_0 + W1_298_0 + W1_299_0 + 0.5019607843137255 W1_300_0
   + 0.5019607843137255 W1_321_0 + W1_322_0 + W1_323_0 + W1_324_0
   + W1_325_0 + W1_326_0 + 0.7490196078431373 W1_327_0
   + 0.5019607843137255 W1_348_0 + W1_349_0 + W1_350_0 + W1_351_0
   + W1_352_0 + W1_353_0 + 0.5019607843137255 W1_354_0
   + 0.2509803921568627 W1_376_0 + W1_377_0 + W1_378_0 + W1_379_0
   + W1_380_0 + W1_381_0 + 0.5019607843137255 W1_405_0 + W1_406_0
   + W1_407_0 + W1_408_0 + W1_409_0 + W1_410_0
   + 0.7490196078431373 W1_411_0 + 0.2509803921568627 W1_412_0 + W1_435_0
   + W1_436_0 + W1_437_0 + W1_438_0 + W1_439_0 + W1_440_0
   + 0.5019607843137255 W1_464_0 + 0.7490196078431373 W1_465_0 + W1_466_0
   + W1_467_0 + W1_468_0 + W1_469_0 + 0.2509803921568627 W1_494_0
   + 0.7490196078431373 W1_495_0 + W1_496_0 + W1_497_0
   + 0.7490196078431373 W1_498_0 + 0.2509803921568627 W1_514_0
   + 0.5019607843137255 W1_515_0 + 0.5019607843137255 W1_516_0
   + 0.2509803921568627 W1_523_0 + W1_524_0 + W1_525_0 + W1_526_0
   + 0.2509803921568627 W1_527_0 + 0.7490196078431373 W1_542_0 + W1_543_0
   + 0.5019607843137255 W1_544_0 + 0.2509803921568627 W1_551_0 + W1_552_0
   + W1_553_0 + W1_554_0 + 0.2509803921568627 W1_555_0
   + 0.2509803921568627 W1_569_0 + W1_570_0 + W1_571_0
   + 0.2509803921568627 W1_572_0 + 0.7490196078431373 W1_579_0 + W1_580_0
   + W1_581_0 + W1_582_0 + 0.2509803921568627 W1_583_0 + W1_598_0
   + W1_599_0 + 0.7490196078431373 W1_600_0 + 0.2509803921568627 W1_601_0
   + 0.2509803921568627 W1_605_0 + 0.7490196078431373 W1_606_0 + W1_607_0
   + W1_608_0 + W1_609_0 + 0.2509803921568627 W1_610_0
   + 0.2509803921568627 W1_626_0 + W1_627_0 + W1_628_0 + W1_629_0
   + W1_630_0 + W1_631_0 + W1_632_0 + W1_633_0 + W1_634_0 + W1_635_0
   + W1_636_0 + 0.7490196078431373 W1_637_0 + 0.2509803921568627 W1_638_0
   + W1_656_0 + W1_657_0 + W1_658_0 + W1_659_0 + W1_660_0 + W1_661_0
   + W1_662_0 + W1_663_0 + 0.7490196078431373 W1_664_0
   + 0.2509803921568627 W1_685_0 + W1_686_0 + W1_687_0
   + 0.7490196078431373 W1_688_0 + 0.5019607843137255 W1_689_0
   + 0.5019607843137255 W1_690_0 + 0.2509803921568627 W1_691_0
   - 20 sign_inner_18_0 <= 0
 sign_1_pkj_pos_18_1: W1_0_1 + 0.2509803921568627 W1_145_1
   + 0.5019607843137255 W1_146_1 + W1_147_1 + 0.7490196078431373 W1_148_1
   + 0.2509803921568627 W1_149_1 + 0.2509803921568627 W1_172_1
   + 0.7490196078431373 W1_173_1 + W1_174_1 + W1_175_1 + W1_176_1
   + 0.7490196078431373 W1_177_1 + 0.7490196078431373 W1_200_1 + W1_201_1
   + W1_202_1 + W1_203_1 + W1_204_1 + W1_205_1 + W1_206_1 + W1_207_1
   + 0.7490196078431373 W1_208_1 + 0.7490196078431373 W1_209_1
   + 0.7490196078431373 W1_210_1 + 0.5019607843137255 W1_211_1
   + 0.5019607843137255 W1_212_1 + 0.5019607843137255 W1_213_1
   + 0.5019607843137255 W1_228_1 + W1_229_1 + W1_230_1 + W1_231_1
   + W1_232_1 + W1_233_1 + W1_234_1 + W1_235_1 + W1_236_1 + W1_237_1
   + W1_238_1 + W1_239_1 + W1_240_1 + W1_241_1 + W1_242_1 + W1_243_1
   + 0.5019607843137255 W1_244_1 + 0.5019607843137255 W1_258_1
   + 0.5019607843137255 W1_259_1 + 0.7490196078431373 W1_260_1
   + 0.5019607843137255 W1_261_1 + 0.5019607843137255 W1_262_1
   + 0.7490196078431373 W1_263_1 + W1_264_1 + W1_265_1 + W1_266_1
   + W1_267_1 + W1_268_1 + W1_269_1 + W1_270_1 + W1_271_1
   + 0.7490196078431373 W1_272_1 + 0.7490196078431373 W1_295_1 + W1_296_1
   + W1_297_1 + W1_298_1 + W1_299_1 + 0.5019607843137255 W1_300_1
   + 0.5019607843137255 W1_321_1 + W1_322_1 + W1_323_1 + W1_324_1
   + W1_325_1 + W1_326_1 + 0.7490196078431373 W1_327_1
   + 0.5019607843137255 W1_348_1 + W1_349_1 + W1_350_1 + W1_351_1
   + W1_352_1 + W1_353_1 + 0.5019607843137255 W1_354_1
   + 0.2509803921568627 W1_376_1 + W1_377_1 + W1_378_1 + W1_379_1
   + W1_380_1 + W1_381_1 + 0.5019607843137255 W1_405_1 + W1_406_1
   + W1_407_1 + W1_408_1 + W1_409_1 + W1_410_1
   + 0.7490196078431373 W1_411_1 + 0.2509803921568627 W1_412_1 + W1_435_1
   + W1_436_1 + W1_437_1 + W1_438_1 + W1_439_1 + W1_440_1
   + 0.5019607843137255 W1_464_1 + 0.7490196078431373 W1_465_1 + W1_466_1
   + W1_467_1 + W1_468_1 + W1_469_1 + 0.2509803921568627 W1_494_1
   + 0.7490196078431373 W1_495_1 + W1_496_1 + W1_497_1
   + 0.7490196078431373 W1_498_1 + 0.2509803921568627 W1_514_1
   + 0.5019607843137255 W1_515_1 + 0.5019607843137255 W1_516_1
   + 0.2509803921568627 W1_523_1 + W1_524_1 + W1_525_1 + W1_526_1
   + 0.2509803921568627 W1_527_1 + 0.7490196078431373 W1_542_1 + W1_543_1
   + 0.5019607843137255 W1_544_1 + 0.2509803921568627 W1_551_1 + W1_552_1
   + W1_553_1 + W1_554_1 + 0.2509803921568627 W1_555_1
   + 0.2509803921568627 W1_569_1 + W1_570_1 + W1_571_1
   + 0.2509803921568627 W1_572_1 + 0.7490196078431373 W1_579_1 + W1_580_1
   + W1_581_1 + W1_582_1 + 0.2509803921568627 W1_583_1 + W1_598_1
   + W1_599_1 + 0.7490196078431373 W1_600_1 + 0.2509803921568627 W1_601_1
   + 0.2509803921568627 W1_605_1 + 0.7490196078431373 W1_606_1 + W1_607_1
   + W1_608_1 + W1_609_1 + 0.2509803921568627 W1_610_1
   + 0.2509803921568627 W1_626_1 + W1_627_1 + W1_628_1 + W1_629_1
   + W1_630_1 + W1_631_1 + W1_632_1 + W1_633_1 + W1_634_1 + W1_635_1
   + W1_636_1 + 0.7490196078431373 W1_637_1 + 0.2509803921568627 W1_638_1
   + W1_656_1 + W1_657_1 + W1_658_1 + W1_659_1 + W1_660_1 + W1_661_1
   + W1_662_1 + W1_663_1 + 0.7490196078431373 W1_664_1
   + 0.2509803921568627 W1_685_1 + W1_686_1 + W1_687_1
   + 0.7490196078431373 W1_688_1 + 0.5019607843137255 W1_689_1
   + 0.5019607843137255 W1_690_1 + 0.2509803921568627 W1_691_1
   - 20 sign_inner_18_1 >= -19.999
 sign_0_pkj_neg_18_1: W1_0_1 + 0.2509803921568627 W1_145_1
   + 0.5019607843137255 W1_146_1 + W1_147_1 + 0.7490196078431373 W1_148_1
   + 0.2509803921568627 W1_149_1 + 0.2509803921568627 W1_172_1
   + 0.7490196078431373 W1_173_1 + W1_174_1 + W1_175_1 + W1_176_1
   + 0.7490196078431373 W1_177_1 + 0.7490196078431373 W1_200_1 + W1_201_1
   + W1_202_1 + W1_203_1 + W1_204_1 + W1_205_1 + W1_206_1 + W1_207_1
   + 0.7490196078431373 W1_208_1 + 0.7490196078431373 W1_209_1
   + 0.7490196078431373 W1_210_1 + 0.5019607843137255 W1_211_1
   + 0.5019607843137255 W1_212_1 + 0.5019607843137255 W1_213_1
   + 0.5019607843137255 W1_228_1 + W1_229_1 + W1_230_1 + W1_231_1
   + W1_232_1 + W1_233_1 + W1_234_1 + W1_235_1 + W1_236_1 + W1_237_1
   + W1_238_1 + W1_239_1 + W1_240_1 + W1_241_1 + W1_242_1 + W1_243_1
   + 0.5019607843137255 W1_244_1 + 0.5019607843137255 W1_258_1
   + 0.5019607843137255 W1_259_1 + 0.7490196078431373 W1_260_1
   + 0.5019607843137255 W1_261_1 + 0.5019607843137255 W1_262_1
   + 0.7490196078431373 W1_263_1 + W1_264_1 + W1_265_1 + W1_266_1
   + W1_267_1 + W1_268_1 + W1_269_1 + W1_270_1 + W1_271_1
   + 0.7490196078431373 W1_272_1 + 0.7490196078431373 W1_295_1 + W1_296_1
   + W1_297_1 + W1_298_1 + W1_299_1 + 0.5019607843137255 W1_300_1
   + 0.5019607843137255 W1_321_1 + W1_322_1 + W1_323_1 + W1_324_1
   + W1_325_1 + W1_326_1 + 0.7490196078431373 W1_327_1
   + 0.5019607843137255 W1_348_1 + W1_349_1 + W1_350_1 + W1_351_1
   + W1_352_1 + W1_353_1 + 0.5019607843137255 W1_354_1
   + 0.2509803921568627 W1_376_1 + W1_377_1 + W1_378_1 + W1_379_1
   + W1_380_1 + W1_381_1 + 0.5019607843137255 W1_405_1 + W1_406_1
   + W1_407_1 + W1_408_1 + W1_409_1 + W1_410_1
   + 0.7490196078431373 W1_411_1 + 0.2509803921568627 W1_412_1 + W1_435_1
   + W1_436_1 + W1_437_1 + W1_438_1 + W1_439_1 + W1_440_1
   + 0.5019607843137255 W1_464_1 + 0.7490196078431373 W1_465_1 + W1_466_1
   + W1_467_1 + W1_468_1 + W1_469_1 + 0.2509803921568627 W1_494_1
   + 0.7490196078431373 W1_495_1 + W1_496_1 + W1_497_1
   + 0.7490196078431373 W1_498_1 + 0.2509803921568627 W1_514_1
   + 0.5019607843137255 W1_515_1 + 0.5019607843137255 W1_516_1
   + 0.2509803921568627 W1_523_1 + W1_524_1 + W1_525_1 + W1_526_1
   + 0.2509803921568627 W1_527_1 + 0.7490196078431373 W1_542_1 + W1_543_1
   + 0.5019607843137255 W1_544_1 + 0.2509803921568627 W1_551_1 + W1_552_1
   + W1_553_1 + W1_554_1 + 0.2509803921568627 W1_555_1
   + 0.2509803921568627 W1_569_1 + W1_570_1 + W1_571_1
   + 0.2509803921568627 W1_572_1 + 0.7490196078431373 W1_579_1 + W1_580_1
   + W1_581_1 + W1_582_1 + 0.2509803921568627 W1_583_1 + W1_598_1
   + W1_599_1 + 0.7490196078431373 W1_600_1 + 0.2509803921568627 W1_601_1
   + 0.2509803921568627 W1_605_1 + 0.7490196078431373 W1_606_1 + W1_607_1
   + W1_608_1 + W1_609_1 + 0.2509803921568627 W1_610_1
   + 0.2509803921568627 W1_626_1 + W1_627_1 + W1_628_1 + W1_629_1
   + W1_630_1 + W1_631_1 + W1_632_1 + W1_633_1 + W1_634_1 + W1_635_1
   + W1_636_1 + 0.7490196078431373 W1_637_1 + 0.2509803921568627 W1_638_1
   + W1_656_1 + W1_657_1 + W1_658_1 + W1_659_1 + W1_660_1 + W1_661_1
   + W1_662_1 + W1_663_1 + 0.7490196078431373 W1_664_1
   + 0.2509803921568627 W1_685_1 + W1_686_1 + W1_687_1
   + 0.7490196078431373 W1_688_1 + 0.5019607843137255 W1_689_1
   + 0.5019607843137255 W1_690_1 + 0.2509803921568627 W1_691_1
   - 20 sign_inner_18_1 <= 0
 sign_1_pkj_pos_19_0: W1_0_0 + 0.6 W1_149_0 + W1_150_0
   + 0.9764705882352941 W1_151_0 + 0.1725490196078431 W1_176_0
   + 0.9215686274509803 W1_177_0 + 0.9921568627450981 W1_178_0
   + 0.9058823529411765 W1_179_0 + 0.0941176470588235 W1_188_0
   + 0.1058823529411765 W1_189_0 + 0.3803921568627451 W1_204_0
   + 0.9921568627450981 W1_205_0 + 0.9921568627450981 W1_206_0
   + 0.5058823529411764 W1_207_0 + 0.6509803921568628 W1_216_0
   + 0.9098039215686274 W1_217_0 + 0.1411764705882353 W1_218_0
   + 0.1568627450980392 W1_231_0 + 0.9294117647058824 W1_232_0
   + 0.9921568627450981 W1_233_0 + 0.9921568627450981 W1_234_0
   + 0.1607843137254902 W1_235_0 + 0.0901960784313725 W1_243_0
   + 0.9058823529411765 W1_244_0 + 0.9921568627450981 W1_245_0
   + 0.207843137254902 W1_246_0 + 0.2117647058823529 W1_259_0
   + 0.9921568627450981 W1_260_0 + 0.9921568627450981 W1_261_0
   + 0.6509803921568628 W1_262_0 + 0.00784313725490196 W1_263_0
   + 0.4980392156862745 W1_271_0 + 0.9921568627450981 W1_272_0
   + 0.7843137254901961 W1_273_0 + 0.0392156862745098 W1_274_0
   + 0.4274509803921568 W1_287_0 + 0.9921568627450981 W1_288_0
   + 0.9921568627450981 W1_289_0 + 0.9450980392156862 W1_290_0
   + 0.0392156862745098 W1_291_0 + 0.0196078431372549 W1_298_0
   + 0.7529411764705882 W1_299_0 + 0.9921568627450981 W1_300_0
   + 0.7372549019607844 W1_301_0 + 0.207843137254902 W1_315_0
   + 0.9882352941176471 W1_316_0 + 0.9921568627450981 W1_317_0
   + 0.9921568627450981 W1_318_0 + 0.4901960784313725 W1_319_0
   + 0.0470588235294118 W1_326_0 + 0.9921568627450981 W1_327_0
   + 0.9921568627450981 W1_328_0 + 0.7372549019607844 W1_329_0
   + 0.6980392156862745 W1_344_0 + 0.9921568627450981 W1_345_0
   + 0.9921568627450981 W1_346_0 + 0.7686274509803922 W1_347_0
   + 0.0431372549019608 W1_348_0 + 0.0901960784313725 W1_354_0
   + 0.9921568627450981 W1_355_0 + 0.9921568627450981 W1_356_0
   + 0.7372549019607844 W1_357_0 + 0.1058823529411765 W1_372_0
   + 0.803921568627451 W1_373_0 + 0.9921568627450981 W1_374_0
   + 0.9921568627450981 W1_375_0 + 0.7450980392156863 W1_376_0
   + 0.0627450980392157 W1_377_0 + 0.5098039215686274 W1_382_0
   + 0.9921568627450981 W1_383_0 + 0.9921568627450981 W1_384_0
   + 0.4470588235294118 W1_385_0 + 0.2705882352941176 W1_401_0
   + 0.9686274509803922 W1_402_0 + 0.9921568627450981 W1_403_0
   + 0.9921568627450981 W1_404_0 + 0.803921568627451 W1_405_0
   + 0.3725490196078431 W1_406_0 + 0.0549019607843137 W1_407_0
   + 0.1058823529411765 W1_409_0 + 0.8392156862745098 W1_410_0
   + 0.9921568627450981 W1_411_0 + 0.8627450980392157 W1_412_0
   + 0.0823529411764706 W1_413_0 + 0.7411764705882353 W1_430_0
   + 0.9921568627450981 W1_431_0 + 0.9921568627450981 W1_432_0
   + 0.9921568627450981 W1_433_0 + 0.9921568627450981 W1_434_0
   + 0.8196078431372549 W1_435_0 + 0.3764705882352941 W1_436_0
   + 0.6078431372549019 W1_437_0 + 0.9921568627450981 W1_438_0
   + 0.9921568627450981 W1_439_0 + 0.807843137254902 W1_440_0
   + 0.0666666666666667 W1_458_0 + 0.396078431372549 W1_459_0
   + 0.9921568627450981 W1_460_0 + 0.9921568627450981 W1_461_0
   + 0.9921568627450981 W1_462_0 + 0.9921568627450981 W1_463_0
   + 0.9921568627450981 W1_464_0 + 0.9921568627450981 W1_465_0
   + 0.9921568627450981 W1_466_0 + 0.9921568627450981 W1_467_0
   + 0.6352941176470588 W1_468_0 + 0.0156862745098039 W1_487_0
   + 0.5098039215686274 W1_488_0 + 0.4549019607843137 W1_489_0
   + 0.9921568627450981 W1_490_0 + 0.9921568627450981 W1_491_0
   + 0.9921568627450981 W1_492_0 + 0.9921568627450981 W1_493_0
   + 0.9921568627450981 W1_494_0 + 0.9921568627450981 W1_495_0
   + 0.3450980392156863 W1_496_0 + 0.00392156862745098 W1_517_0
   + 0.2392156862745098 W1_518_0 + 0.1607843137254902 W1_519_0
   + 0.9137254901960784 W1_520_0 + 0.9921568627450981 W1_521_0
   + 0.9921568627450981 W1_522_0 + 0.8784313725490196 W1_523_0
   + 0.00784313725490196 W1_524_0 + 0.0392156862745098 W1_547_0
   + 0.8549019607843137 W1_548_0 + 0.9921568627450981 W1_549_0
   + 0.9921568627450981 W1_550_0 + 0.8235294117647058 W1_551_0
   + 0.3058823529411765 W1_575_0 + 0.9921568627450981 W1_576_0
   + 0.9921568627450981 W1_577_0 + 0.9647058823529412 W1_578_0
   + 0.1450980392156863 W1_579_0 + 0.3058823529411765 W1_603_0
   + 0.9921568627450981 W1_604_0 + 0.9921568627450981 W1_605_0
   + 0.9450980392156862 W1_606_0 + 0.6705882352941176 W1_631_0
   + 0.9921568627450981 W1_632_0 + 0.9921568627450981 W1_633_0
   + 0.9607843137254902 W1_634_0 + 0.1372549019607843 W1_635_0
   + 0.3686274509803922 W1_659_0 + 0.9921568627450981 W1_660_0
   + 0.9921568627450981 W1_661_0 + 0.9921568627450981 W1_662_0
   + 0.6274509803921569 W1_663_0 + 0.1647058823529412 W1_687_0
   + 0.9176470588235294 W1_688_0 + 0.9921568627450981 W1_689_0
   + 0.9490196078431372 W1_690_0 + 0.0274509803921569 W1_691_0
   - 20 sign_inner_19_0 >= -19.999
 sign_0_pkj_neg_19_0: W1_0_0 + 0.6 W1_149_0 + W1_150_0
   + 0.9764705882352941 W1_151_0 + 0.1725490196078431 W1_176_0
   + 0.9215686274509803 W1_177_0 + 0.9921568627450981 W1_178_0
   + 0.9058823529411765 W1_179_0 + 0.0941176470588235 W1_188_0
   + 0.1058823529411765 W1_189_0 + 0.3803921568627451 W1_204_0
   + 0.9921568627450981 W1_205_0 + 0.9921568627450981 W1_206_0
   + 0.5058823529411764 W1_207_0 + 0.6509803921568628 W1_216_0
   + 0.9098039215686274 W1_217_0 + 0.1411764705882353 W1_218_0
   + 0.1568627450980392 W1_231_0 + 0.9294117647058824 W1_232_0
   + 0.9921568627450981 W1_233_0 + 0.9921568627450981 W1_234_0
   + 0.1607843137254902 W1_235_0 + 0.0901960784313725 W1_243_0
   + 0.9058823529411765 W1_244_0 + 0.9921568627450981 W1_245_0
   + 0.207843137254902 W1_246_0 + 0.2117647058823529 W1_259_0
   + 0.9921568627450981 W1_260_0 + 0.9921568627450981 W1_261_0
   + 0.6509803921568628 W1_262_0 + 0.00784313725490196 W1_263_0
   + 0.4980392156862745 W1_271_0 + 0.9921568627450981 W1_272_0
   + 0.7843137254901961 W1_273_0 + 0.0392156862745098 W1_274_0
   + 0.4274509803921568 W1_287_0 + 0.9921568627450981 W1_288_0
   + 0.9921568627450981 W1_289_0 + 0.9450980392156862 W1_290_0
   + 0.0392156862745098 W1_291_0 + 0.0196078431372549 W1_298_0
   + 0.7529411764705882 W1_299_0 + 0.9921568627450981 W1_300_0
   + 0.7372549019607844 W1_301_0 + 0.207843137254902 W1_315_0
   + 0.9882352941176471 W1_316_0 + 0.9921568627450981 W1_317_0
   + 0.9921568627450981 W1_318_0 + 0.4901960784313725 W1_319_0
   + 0.0470588235294118 W1_326_0 + 0.9921568627450981 W1_327_0
   + 0.9921568627450981 W1_328_0 + 0.7372549019607844 W1_329_0
   + 0.6980392156862745 W1_344_0 + 0.9921568627450981 W1_345_0
   + 0.9921568627450981 W1_346_0 + 0.7686274509803922 W1_347_0
   + 0.0431372549019608 W1_348_0 + 0.0901960784313725 W1_354_0
   + 0.9921568627450981 W1_355_0 + 0.9921568627450981 W1_356_0
   + 0.7372549019607844 W1_357_0 + 0.1058823529411765 W1_372_0
   + 0.803921568627451 W1_373_0 + 0.9921568627450981 W1_374_0
   + 0.9921568627450981 W1_375_0 + 0.7450980392156863 W1_376_0
   + 0.0627450980392157 W1_377_0 + 0.5098039215686274 W1_382_0
   + 0.9921568627450981 W1_383_0 + 0.9921568627450981 W1_384_0
   + 0.4470588235294118 W1_385_0 + 0.2705882352941176 W1_401_0
   + 0.9686274509803922 W1_402_0 + 0.9921568627450981 W1_403_0
   + 0.9921568627450981 W1_404_0 + 0.803921568627451 W1_405_0
   + 0.3725490196078431 W1_406_0 + 0.0549019607843137 W1_407_0
   + 0.1058823529411765 W1_409_0 + 0.8392156862745098 W1_410_0
   + 0.9921568627450981 W1_411_0 + 0.8627450980392157 W1_412_0
   + 0.0823529411764706 W1_413_0 + 0.7411764705882353 W1_430_0
   + 0.9921568627450981 W1_431_0 + 0.9921568627450981 W1_432_0
   + 0.9921568627450981 W1_433_0 + 0.9921568627450981 W1_434_0
   + 0.8196078431372549 W1_435_0 + 0.3764705882352941 W1_436_0
   + 0.6078431372549019 W1_437_0 + 0.9921568627450981 W1_438_0
   + 0.9921568627450981 W1_439_0 + 0.807843137254902 W1_440_0
   + 0.0666666666666667 W1_458_0 + 0.396078431372549 W1_459_0
   + 0.9921568627450981 W1_460_0 + 0.9921568627450981 W1_461_0
   + 0.9921568627450981 W1_462_0 + 0.9921568627450981 W1_463_0
   + 0.9921568627450981 W1_464_0 + 0.9921568627450981 W1_465_0
   + 0.9921568627450981 W1_466_0 + 0.9921568627450981 W1_467_0
   + 0.6352941176470588 W1_468_0 + 0.0156862745098039 W1_487_0
   + 0.5098039215686274 W1_488_0 + 0.4549019607843137 W1_489_0
   + 0.9921568627450981 W1_490_0 + 0.9921568627450981 W1_491_0
   + 0.9921568627450981 W1_492_0 + 0.9921568627450981 W1_493_0
   + 0.9921568627450981 W1_494_0 + 0.9921568627450981 W1_495_0
   + 0.3450980392156863 W1_496_0 + 0.00392156862745098 W1_517_0
   + 0.2392156862745098 W1_518_0 + 0.1607843137254902 W1_519_0
   + 0.9137254901960784 W1_520_0 + 0.9921568627450981 W1_521_0
   + 0.9921568627450981 W1_522_0 + 0.8784313725490196 W1_523_0
   + 0.00784313725490196 W1_524_0 + 0.0392156862745098 W1_547_0
   + 0.8549019607843137 W1_548_0 + 0.9921568627450981 W1_549_0
   + 0.9921568627450981 W1_550_0 + 0.8235294117647058 W1_551_0
   + 0.3058823529411765 W1_575_0 + 0.9921568627450981 W1_576_0
   + 0.9921568627450981 W1_577_0 + 0.9647058823529412 W1_578_0
   + 0.1450980392156863 W1_579_0 + 0.3058823529411765 W1_603_0
   + 0.9921568627450981 W1_604_0 + 0.9921568627450981 W1_605_0
   + 0.9450980392156862 W1_606_0 + 0.6705882352941176 W1_631_0
   + 0.9921568627450981 W1_632_0 + 0.9921568627450981 W1_633_0
   + 0.9607843137254902 W1_634_0 + 0.1372549019607843 W1_635_0
   + 0.3686274509803922 W1_659_0 + 0.9921568627450981 W1_660_0
   + 0.9921568627450981 W1_661_0 + 0.9921568627450981 W1_662_0
   + 0.6274509803921569 W1_663_0 + 0.1647058823529412 W1_687_0
   + 0.9176470588235294 W1_688_0 + 0.9921568627450981 W1_689_0
   + 0.9490196078431372 W1_690_0 + 0.0274509803921569 W1_691_0
   - 20 sign_inner_19_0 <= 0
 sign_1_pkj_pos_19_1: W1_0_1 + 0.6 W1_149_1 + W1_150_1
   + 0.9764705882352941 W1_151_1 + 0.1725490196078431 W1_176_1
   + 0.9215686274509803 W1_177_1 + 0.9921568627450981 W1_178_1
   + 0.9058823529411765 W1_179_1 + 0.0941176470588235 W1_188_1
   + 0.1058823529411765 W1_189_1 + 0.3803921568627451 W1_204_1
   + 0.9921568627450981 W1_205_1 + 0.9921568627450981 W1_206_1
   + 0.5058823529411764 W1_207_1 + 0.6509803921568628 W1_216_1
   + 0.9098039215686274 W1_217_1 + 0.1411764705882353 W1_218_1
   + 0.1568627450980392 W1_231_1 + 0.9294117647058824 W1_232_1
   + 0.9921568627450981 W1_233_1 + 0.9921568627450981 W1_234_1
   + 0.1607843137254902 W1_235_1 + 0.0901960784313725 W1_243_1
   + 0.9058823529411765 W1_244_1 + 0.9921568627450981 W1_245_1
   + 0.207843137254902 W1_246_1 + 0.2117647058823529 W1_259_1
   + 0.9921568627450981 W1_260_1 + 0.9921568627450981 W1_261_1
   + 0.6509803921568628 W1_262_1 + 0.00784313725490196 W1_263_1
   + 0.4980392156862745 W1_271_1 + 0.9921568627450981 W1_272_1
   + 0.7843137254901961 W1_273_1 + 0.0392156862745098 W1_274_1
   + 0.4274509803921568 W1_287_1 + 0.9921568627450981 W1_288_1
   + 0.9921568627450981 W1_289_1 + 0.9450980392156862 W1_290_1
   + 0.0392156862745098 W1_291_1 + 0.0196078431372549 W1_298_1
   + 0.7529411764705882 W1_299_1 + 0.9921568627450981 W1_300_1
   + 0.7372549019607844 W1_301_1 + 0.207843137254902 W1_315_1
   + 0.9882352941176471 W1_316_1 + 0.9921568627450981 W1_317_1
   + 0.9921568627450981 W1_318_1 + 0.4901960784313725 W1_319_1
   + 0.0470588235294118 W1_326_1 + 0.9921568627450981 W1_327_1
   + 0.9921568627450981 W1_328_1 + 0.7372549019607844 W1_329_1
   + 0.6980392156862745 W1_344_1 + 0.9921568627450981 W1_345_1
   + 0.9921568627450981 W1_346_1 + 0.7686274509803922 W1_347_1
   + 0.0431372549019608 W1_348_1 + 0.0901960784313725 W1_354_1
   + 0.9921568627450981 W1_355_1 + 0.9921568627450981 W1_356_1
   + 0.7372549019607844 W1_357_1 + 0.1058823529411765 W1_372_1
   + 0.803921568627451 W1_373_1 + 0.9921568627450981 W1_374_1
   + 0.9921568627450981 W1_375_1 + 0.7450980392156863 W1_376_1
   + 0.0627450980392157 W1_377_1 + 0.5098039215686274 W1_382_1
   + 0.9921568627450981 W1_383_1 + 0.9921568627450981 W1_384_1
   + 0.4470588235294118 W1_385_1 + 0.2705882352941176 W1_401_1
   + 0.9686274509803922 W1_402_1 + 0.9921568627450981 W1_403_1
   + 0.9921568627450981 W1_404_1 + 0.803921568627451 W1_405_1
   + 0.3725490196078431 W1_406_1 + 0.0549019607843137 W1_407_1
   + 0.1058823529411765 W1_409_1 + 0.8392156862745098 W1_410_1
   + 0.9921568627450981 W1_411_1 + 0.8627450980392157 W1_412_1
   + 0.0823529411764706 W1_413_1 + 0.7411764705882353 W1_430_1
   + 0.9921568627450981 W1_431_1 + 0.9921568627450981 W1_432_1
   + 0.9921568627450981 W1_433_1 + 0.9921568627450981 W1_434_1
   + 0.8196078431372549 W1_435_1 + 0.3764705882352941 W1_436_1
   + 0.6078431372549019 W1_437_1 + 0.9921568627450981 W1_438_1
   + 0.9921568627450981 W1_439_1 + 0.807843137254902 W1_440_1
   + 0.0666666666666667 W1_458_1 + 0.396078431372549 W1_459_1
   + 0.9921568627450981 W1_460_1 + 0.9921568627450981 W1_461_1
   + 0.9921568627450981 W1_462_1 + 0.9921568627450981 W1_463_1
   + 0.9921568627450981 W1_464_1 + 0.9921568627450981 W1_465_1
   + 0.9921568627450981 W1_466_1 + 0.9921568627450981 W1_467_1
   + 0.6352941176470588 W1_468_1 + 0.0156862745098039 W1_487_1
   + 0.5098039215686274 W1_488_1 + 0.4549019607843137 W1_489_1
   + 0.9921568627450981 W1_490_1 + 0.9921568627450981 W1_491_1
   + 0.9921568627450981 W1_492_1 + 0.9921568627450981 W1_493_1
   + 0.9921568627450981 W1_494_1 + 0.9921568627450981 W1_495_1
   + 0.3450980392156863 W1_496_1 + 0.00392156862745098 W1_517_1
   + 0.2392156862745098 W1_518_1 + 0.1607843137254902 W1_519_1
   + 0.9137254901960784 W1_520_1 + 0.9921568627450981 W1_521_1
   + 0.9921568627450981 W1_522_1 + 0.8784313725490196 W1_523_1
   + 0.00784313725490196 W1_524_1 + 0.0392156862745098 W1_547_1
   + 0.8549019607843137 W1_548_1 + 0.9921568627450981 W1_549_1
   + 0.9921568627450981 W1_550_1 + 0.8235294117647058 W1_551_1
   + 0.3058823529411765 W1_575_1 + 0.9921568627450981 W1_576_1
   + 0.9921568627450981 W1_577_1 + 0.9647058823529412 W1_578_1
   + 0.1450980392156863 W1_579_1 + 0.3058823529411765 W1_603_1
   + 0.9921568627450981 W1_604_1 + 0.9921568627450981 W1_605_1
   + 0.9450980392156862 W1_606_1 + 0.6705882352941176 W1_631_1
   + 0.9921568627450981 W1_632_1 + 0.9921568627450981 W1_633_1
   + 0.9607843137254902 W1_634_1 + 0.1372549019607843 W1_635_1
   + 0.3686274509803922 W1_659_1 + 0.9921568627450981 W1_660_1
   + 0.9921568627450981 W1_661_1 + 0.9921568627450981 W1_662_1
   + 0.6274509803921569 W1_663_1 + 0.1647058823529412 W1_687_1
   + 0.9176470588235294 W1_688_1 + 0.9921568627450981 W1_689_1
   + 0.9490196078431372 W1_690_1 + 0.0274509803921569 W1_691_1
   - 20 sign_inner_19_1 >= -19.999
 sign_0_pkj_neg_19_1: W1_0_1 + 0.6 W1_149_1 + W1_150_1
   + 0.9764705882352941 W1_151_1 + 0.1725490196078431 W1_176_1
   + 0.9215686274509803 W1_177_1 + 0.9921568627450981 W1_178_1
   + 0.9058823529411765 W1_179_1 + 0.0941176470588235 W1_188_1
   + 0.1058823529411765 W1_189_1 + 0.3803921568627451 W1_204_1
   + 0.9921568627450981 W1_205_1 + 0.9921568627450981 W1_206_1
   + 0.5058823529411764 W1_207_1 + 0.6509803921568628 W1_216_1
   + 0.9098039215686274 W1_217_1 + 0.1411764705882353 W1_218_1
   + 0.1568627450980392 W1_231_1 + 0.9294117647058824 W1_232_1
   + 0.9921568627450981 W1_233_1 + 0.9921568627450981 W1_234_1
   + 0.1607843137254902 W1_235_1 + 0.0901960784313725 W1_243_1
   + 0.9058823529411765 W1_244_1 + 0.9921568627450981 W1_245_1
   + 0.207843137254902 W1_246_1 + 0.2117647058823529 W1_259_1
   + 0.9921568627450981 W1_260_1 + 0.9921568627450981 W1_261_1
   + 0.6509803921568628 W1_262_1 + 0.00784313725490196 W1_263_1
   + 0.4980392156862745 W1_271_1 + 0.9921568627450981 W1_272_1
   + 0.7843137254901961 W1_273_1 + 0.0392156862745098 W1_274_1
   + 0.4274509803921568 W1_287_1 + 0.9921568627450981 W1_288_1
   + 0.9921568627450981 W1_289_1 + 0.9450980392156862 W1_290_1
   + 0.0392156862745098 W1_291_1 + 0.0196078431372549 W1_298_1
   + 0.7529411764705882 W1_299_1 + 0.9921568627450981 W1_300_1
   + 0.7372549019607844 W1_301_1 + 0.207843137254902 W1_315_1
   + 0.9882352941176471 W1_316_1 + 0.9921568627450981 W1_317_1
   + 0.9921568627450981 W1_318_1 + 0.4901960784313725 W1_319_1
   + 0.0470588235294118 W1_326_1 + 0.9921568627450981 W1_327_1
   + 0.9921568627450981 W1_328_1 + 0.7372549019607844 W1_329_1
   + 0.6980392156862745 W1_344_1 + 0.9921568627450981 W1_345_1
   + 0.9921568627450981 W1_346_1 + 0.7686274509803922 W1_347_1
   + 0.0431372549019608 W1_348_1 + 0.0901960784313725 W1_354_1
   + 0.9921568627450981 W1_355_1 + 0.9921568627450981 W1_356_1
   + 0.7372549019607844 W1_357_1 + 0.1058823529411765 W1_372_1
   + 0.803921568627451 W1_373_1 + 0.9921568627450981 W1_374_1
   + 0.9921568627450981 W1_375_1 + 0.7450980392156863 W1_376_1
   + 0.0627450980392157 W1_377_1 + 0.5098039215686274 W1_382_1
   + 0.9921568627450981 W1_383_1 + 0.9921568627450981 W1_384_1
   + 0.4470588235294118 W1_385_1 + 0.2705882352941176 W1_401_1
   + 0.9686274509803922 W1_402_1 + 0.9921568627450981 W1_403_1
   + 0.9921568627450981 W1_404_1 + 0.803921568627451 W1_405_1
   + 0.3725490196078431 W1_406_1 + 0.0549019607843137 W1_407_1
   + 0.1058823529411765 W1_409_1 + 0.8392156862745098 W1_410_1
   + 0.9921568627450981 W1_411_1 + 0.8627450980392157 W1_412_1
   + 0.0823529411764706 W1_413_1 + 0.7411764705882353 W1_430_1
   + 0.9921568627450981 W1_431_1 + 0.9921568627450981 W1_432_1
   + 0.9921568627450981 W1_433_1 + 0.9921568627450981 W1_434_1
   + 0.8196078431372549 W1_435_1 + 0.3764705882352941 W1_436_1
   + 0.6078431372549019 W1_437_1 + 0.9921568627450981 W1_438_1
   + 0.9921568627450981 W1_439_1 + 0.807843137254902 W1_440_1
   + 0.0666666666666667 W1_458_1 + 0.396078431372549 W1_459_1
   + 0.9921568627450981 W1_460_1 + 0.9921568627450981 W1_461_1
   + 0.9921568627450981 W1_462_1 + 0.9921568627450981 W1_463_1
   + 0.9921568627450981 W1_464_1 + 0.9921568627450981 W1_465_1
   + 0.9921568627450981 W1_466_1 + 0.9921568627450981 W1_467_1
   + 0.6352941176470588 W1_468_1 + 0.0156862745098039 W1_487_1
   + 0.5098039215686274 W1_488_1 + 0.4549019607843137 W1_489_1
   + 0.9921568627450981 W1_490_1 + 0.9921568627450981 W1_491_1
   + 0.9921568627450981 W1_492_1 + 0.9921568627450981 W1_493_1
   + 0.9921568627450981 W1_494_1 + 0.9921568627450981 W1_495_1
   + 0.3450980392156863 W1_496_1 + 0.00392156862745098 W1_517_1
   + 0.2392156862745098 W1_518_1 + 0.1607843137254902 W1_519_1
   + 0.9137254901960784 W1_520_1 + 0.9921568627450981 W1_521_1
   + 0.9921568627450981 W1_522_1 + 0.8784313725490196 W1_523_1
   + 0.00784313725490196 W1_524_1 + 0.0392156862745098 W1_547_1
   + 0.8549019607843137 W1_548_1 + 0.9921568627450981 W1_549_1
   + 0.9921568627450981 W1_550_1 + 0.8235294117647058 W1_551_1
   + 0.3058823529411765 W1_575_1 + 0.9921568627450981 W1_576_1
   + 0.9921568627450981 W1_577_1 + 0.9647058823529412 W1_578_1
   + 0.1450980392156863 W1_579_1 + 0.3058823529411765 W1_603_1
   + 0.9921568627450981 W1_604_1 + 0.9921568627450981 W1_605_1
   + 0.9450980392156862 W1_606_1 + 0.6705882352941176 W1_631_1
   + 0.9921568627450981 W1_632_1 + 0.9921568627450981 W1_633_1
   + 0.9607843137254902 W1_634_1 + 0.1372549019607843 W1_635_1
   + 0.3686274509803922 W1_659_1 + 0.9921568627450981 W1_660_1
   + 0.9921568627450981 W1_661_1 + 0.9921568627450981 W1_662_1
   + 0.6274509803921569 W1_663_1 + 0.1647058823529412 W1_687_1
   + 0.9176470588235294 W1_688_1 + 0.9921568627450981 W1_689_1
   + 0.9490196078431372 W1_690_1 + 0.0274509803921569 W1_691_1
   - 20 sign_inner_19_1 <= 0
 sign_1_pkj_pos_20_0: W1_0_0 + 0.5019607843137255 W1_163_0
   + 0.9607843137254902 W1_164_0 + 0.996078431372549 W1_165_0
   + 0.5019607843137255 W1_166_0 + 0.0196078431372549 W1_189_0
   + 0.7098039215686275 W1_190_0 + 0.996078431372549 W1_191_0
   + 0.9921568627450981 W1_192_0 + 0.9725490196078431 W1_193_0
   + 0.3843137254901961 W1_194_0 + 0.0509803921568627 W1_216_0
   + 0.6980392156862745 W1_217_0 + 0.9921568627450981 W1_218_0
   + 0.996078431372549 W1_219_0 + 0.9411764705882353 W1_220_0
   + 0.4235294117647059 W1_221_0 + 0.1333333333333333 W1_236_0
   + 0.1019607843137255 W1_243_0 + 0.8392156862745098 W1_244_0
   + 0.9921568627450981 W1_245_0 + 0.9921568627450981 W1_246_0
   + 0.8941176470588236 W1_247_0 + 0.2862745098039216 W1_248_0
   + 0.407843137254902 W1_263_0 + 0.9607843137254902 W1_264_0
   + 0.4117647058823529 W1_265_0 + 0.8666666666666667 W1_271_0
   + 0.996078431372549 W1_272_0 + 0.996078431372549 W1_273_0
   + 0.996078431372549 W1_274_0 + 0.2666666666666667 W1_275_0
   + 0.0666666666666667 W1_290_0 + 0.8313725490196079 W1_291_0
   + 0.9921568627450981 W1_292_0 + 0.5372549019607843 W1_293_0
   + 0.0196078431372549 W1_297_0 + 0.5764705882352941 W1_298_0
   + 0.996078431372549 W1_299_0 + 0.9921568627450981 W1_300_0
   + 0.9725490196078431 W1_301_0 + 0.4156862745098039 W1_302_0
   + 0.0431372549019608 W1_317_0 + 0.6823529411764706 W1_318_0
   + 0.996078431372549 W1_319_0 + 0.9921568627450981 W1_320_0
   + 0.5372549019607843 W1_321_0 + 0.0862745098039216 W1_324_0
   + 0.6313725490196078 W1_325_0 + 0.9921568627450981 W1_326_0
   + 0.996078431372549 W1_327_0 + 0.9725490196078431 W1_328_0
   + 0.4235294117647059 W1_329_0 + 0.0666666666666667 W1_344_0
   + 0.7803921568627451 W1_345_0 + 0.9921568627450981 W1_346_0
   + 0.996078431372549 W1_347_0 + 0.9254901960784314 W1_348_0
   + 0.2117647058823529 W1_349_0 + 0.5764705882352941 W1_352_0
   + 0.9921568627450981 W1_353_0 + 0.9921568627450981 W1_354_0
   + 0.996078431372549 W1_355_0 + 0.4156862745098039 W1_356_0
   + 0.7764705882352941 W1_372_0 + 0.996078431372549 W1_373_0
   + 0.996078431372549 W1_374_0 + 0.996078431372549 W1_375_0
   + 0.3529411764705883 W1_376_0 + 0.2 W1_378_0 + 0.6 W1_379_0
   + 0.996078431372549 W1_380_0 + 0.996078431372549 W1_381_0
   + 0.996078431372549 W1_382_0 + 0.8235294117647058 W1_383_0
   + 0.0352941176470588 W1_384_0 + 0.4470588235294118 W1_399_0
   + 0.984313725490196 W1_400_0 + 0.9921568627450981 W1_401_0
   + 0.9921568627450981 W1_402_0 + 0.996078431372549 W1_403_0
   + 0.9098039215686274 W1_404_0 + 0.9019607843137255 W1_405_0
   + 0.9686274509803922 W1_406_0 + 0.996078431372549 W1_407_0
   + 0.9921568627450981 W1_408_0 + 0.9921568627450981 W1_409_0
   + 0.9921568627450981 W1_410_0 + 0.9725490196078431 W1_411_0
   + 0.9019607843137255 W1_412_0 + 0.9019607843137255 W1_413_0
   + 0.3803921568627451 W1_414_0 + 0.9294117647058824 W1_427_0
   + 0.9921568627450981 W1_428_0 + 0.9921568627450981 W1_429_0
   + 0.9921568627450981 W1_430_0 + 0.996078431372549 W1_431_0
   + 0.9921568627450981 W1_432_0 + 0.9921568627450981 W1_433_0
   + 0.9921568627450981 W1_434_0 + 0.996078431372549 W1_435_0
   + 0.9921568627450981 W1_436_0 + 0.9921568627450981 W1_437_0
   + 0.9921568627450981 W1_438_0 + 0.996078431372549 W1_439_0
   + 0.9725490196078431 W1_440_0 + 0.5686274509803921 W1_441_0
   + 0.0509803921568627 W1_442_0 + 0.8627450980392157 W1_455_0
   + 0.9921568627450981 W1_456_0 + 0.9921568627450981 W1_457_0
   + 0.9921568627450981 W1_458_0 + 0.996078431372549 W1_459_0
   + 0.9921568627450981 W1_460_0 + 0.9921568627450981 W1_461_0
   + 0.9921568627450981 W1_462_0 + 0.996078431372549 W1_463_0
   + 0.9254901960784314 W1_464_0 + 0.5019607843137255 W1_465_0
   + 0.7607843137254902 W1_466_0 + 0.8941176470588236 W1_467_0
   + 0.2509803921568627 W1_468_0 + 0.3333333333333333 W1_484_0
   + 0.3647058823529412 W1_485_0 + 0.3647058823529412 W1_486_0
   + 0.1333333333333333 W1_487_0 + 0.5450980392156862 W1_488_0
   + 0.996078431372549 W1_489_0 + 0.996078431372549 W1_490_0
   + 0.9254901960784314 W1_491_0 + 0.3294117647058823 W1_492_0
   + 0.1176470588235294 W1_515_0 + 0.8862745098039215 W1_516_0
   + 0.9921568627450981 W1_517_0 + 0.9921568627450981 W1_518_0
   + 0.592156862745098 W1_519_0 + 0.6666666666666666 W1_543_0
   + 0.9921568627450981 W1_544_0 + 0.9921568627450981 W1_545_0
   + 0.6941176470588235 W1_546_0 + 0.2666666666666667 W1_570_0
   + 0.996078431372549 W1_571_0 + 0.9921568627450981 W1_572_0
   + 0.9568627450980393 W1_573_0 + 0.2705882352941176 W1_574_0
   + 0.7254901960784313 W1_598_0 + W1_599_0 + 0.996078431372549 W1_600_0
   + 0.4431372549019608 W1_601_0 + 0.0862745098039216 W1_625_0
   + 0.9686274509803922 W1_626_0 + 0.996078431372549 W1_627_0
   + 0.8235294117647058 W1_628_0 + 0.0823529411764706 W1_629_0
   + 0.0941176470588235 W1_653_0 + 0.9921568627450981 W1_654_0
   + 0.9686274509803922 W1_655_0 + 0.2784313725490196 W1_656_0
   + 0.0588235294117647 W1_681_0 + 0.8941176470588236 W1_682_0
   + 0.592156862745098 W1_683_0 - 20 sign_inner_20_0 >= -19.999
 sign_0_pkj_neg_20_0: W1_0_0 + 0.5019607843137255 W1_163_0
   + 0.9607843137254902 W1_164_0 + 0.996078431372549 W1_165_0
   + 0.5019607843137255 W1_166_0 + 0.0196078431372549 W1_189_0
   + 0.7098039215686275 W1_190_0 + 0.996078431372549 W1_191_0
   + 0.9921568627450981 W1_192_0 + 0.9725490196078431 W1_193_0
   + 0.3843137254901961 W1_194_0 + 0.0509803921568627 W1_216_0
   + 0.6980392156862745 W1_217_0 + 0.9921568627450981 W1_218_0
   + 0.996078431372549 W1_219_0 + 0.9411764705882353 W1_220_0
   + 0.4235294117647059 W1_221_0 + 0.1333333333333333 W1_236_0
   + 0.1019607843137255 W1_243_0 + 0.8392156862745098 W1_244_0
   + 0.9921568627450981 W1_245_0 + 0.9921568627450981 W1_246_0
   + 0.8941176470588236 W1_247_0 + 0.2862745098039216 W1_248_0
   + 0.407843137254902 W1_263_0 + 0.9607843137254902 W1_264_0
   + 0.4117647058823529 W1_265_0 + 0.8666666666666667 W1_271_0
   + 0.996078431372549 W1_272_0 + 0.996078431372549 W1_273_0
   + 0.996078431372549 W1_274_0 + 0.2666666666666667 W1_275_0
   + 0.0666666666666667 W1_290_0 + 0.8313725490196079 W1_291_0
   + 0.9921568627450981 W1_292_0 + 0.5372549019607843 W1_293_0
   + 0.0196078431372549 W1_297_0 + 0.5764705882352941 W1_298_0
   + 0.996078431372549 W1_299_0 + 0.9921568627450981 W1_300_0
   + 0.9725490196078431 W1_301_0 + 0.4156862745098039 W1_302_0
   + 0.0431372549019608 W1_317_0 + 0.6823529411764706 W1_318_0
   + 0.996078431372549 W1_319_0 + 0.9921568627450981 W1_320_0
   + 0.5372549019607843 W1_321_0 + 0.0862745098039216 W1_324_0
   + 0.6313725490196078 W1_325_0 + 0.9921568627450981 W1_326_0
   + 0.996078431372549 W1_327_0 + 0.9725490196078431 W1_328_0
   + 0.4235294117647059 W1_329_0 + 0.0666666666666667 W1_344_0
   + 0.7803921568627451 W1_345_0 + 0.9921568627450981 W1_346_0
   + 0.996078431372549 W1_347_0 + 0.9254901960784314 W1_348_0
   + 0.2117647058823529 W1_349_0 + 0.5764705882352941 W1_352_0
   + 0.9921568627450981 W1_353_0 + 0.9921568627450981 W1_354_0
   + 0.996078431372549 W1_355_0 + 0.4156862745098039 W1_356_0
   + 0.7764705882352941 W1_372_0 + 0.996078431372549 W1_373_0
   + 0.996078431372549 W1_374_0 + 0.996078431372549 W1_375_0
   + 0.3529411764705883 W1_376_0 + 0.2 W1_378_0 + 0.6 W1_379_0
   + 0.996078431372549 W1_380_0 + 0.996078431372549 W1_381_0
   + 0.996078431372549 W1_382_0 + 0.8235294117647058 W1_383_0
   + 0.0352941176470588 W1_384_0 + 0.4470588235294118 W1_399_0
   + 0.984313725490196 W1_400_0 + 0.9921568627450981 W1_401_0
   + 0.9921568627450981 W1_402_0 + 0.996078431372549 W1_403_0
   + 0.9098039215686274 W1_404_0 + 0.9019607843137255 W1_405_0
   + 0.9686274509803922 W1_406_0 + 0.996078431372549 W1_407_0
   + 0.9921568627450981 W1_408_0 + 0.9921568627450981 W1_409_0
   + 0.9921568627450981 W1_410_0 + 0.9725490196078431 W1_411_0
   + 0.9019607843137255 W1_412_0 + 0.9019607843137255 W1_413_0
   + 0.3803921568627451 W1_414_0 + 0.9294117647058824 W1_427_0
   + 0.9921568627450981 W1_428_0 + 0.9921568627450981 W1_429_0
   + 0.9921568627450981 W1_430_0 + 0.996078431372549 W1_431_0
   + 0.9921568627450981 W1_432_0 + 0.9921568627450981 W1_433_0
   + 0.9921568627450981 W1_434_0 + 0.996078431372549 W1_435_0
   + 0.9921568627450981 W1_436_0 + 0.9921568627450981 W1_437_0
   + 0.9921568627450981 W1_438_0 + 0.996078431372549 W1_439_0
   + 0.9725490196078431 W1_440_0 + 0.5686274509803921 W1_441_0
   + 0.0509803921568627 W1_442_0 + 0.8627450980392157 W1_455_0
   + 0.9921568627450981 W1_456_0 + 0.9921568627450981 W1_457_0
   + 0.9921568627450981 W1_458_0 + 0.996078431372549 W1_459_0
   + 0.9921568627450981 W1_460_0 + 0.9921568627450981 W1_461_0
   + 0.9921568627450981 W1_462_0 + 0.996078431372549 W1_463_0
   + 0.9254901960784314 W1_464_0 + 0.5019607843137255 W1_465_0
   + 0.7607843137254902 W1_466_0 + 0.8941176470588236 W1_467_0
   + 0.2509803921568627 W1_468_0 + 0.3333333333333333 W1_484_0
   + 0.3647058823529412 W1_485_0 + 0.3647058823529412 W1_486_0
   + 0.1333333333333333 W1_487_0 + 0.5450980392156862 W1_488_0
   + 0.996078431372549 W1_489_0 + 0.996078431372549 W1_490_0
   + 0.9254901960784314 W1_491_0 + 0.3294117647058823 W1_492_0
   + 0.1176470588235294 W1_515_0 + 0.8862745098039215 W1_516_0
   + 0.9921568627450981 W1_517_0 + 0.9921568627450981 W1_518_0
   + 0.592156862745098 W1_519_0 + 0.6666666666666666 W1_543_0
   + 0.9921568627450981 W1_544_0 + 0.9921568627450981 W1_545_0
   + 0.6941176470588235 W1_546_0 + 0.2666666666666667 W1_570_0
   + 0.996078431372549 W1_571_0 + 0.9921568627450981 W1_572_0
   + 0.9568627450980393 W1_573_0 + 0.2705882352941176 W1_574_0
   + 0.7254901960784313 W1_598_0 + W1_599_0 + 0.996078431372549 W1_600_0
   + 0.4431372549019608 W1_601_0 + 0.0862745098039216 W1_625_0
   + 0.9686274509803922 W1_626_0 + 0.996078431372549 W1_627_0
   + 0.8235294117647058 W1_628_0 + 0.0823529411764706 W1_629_0
   + 0.0941176470588235 W1_653_0 + 0.9921568627450981 W1_654_0
   + 0.9686274509803922 W1_655_0 + 0.2784313725490196 W1_656_0
   + 0.0588235294117647 W1_681_0 + 0.8941176470588236 W1_682_0
   + 0.592156862745098 W1_683_0 - 20 sign_inner_20_0 <= 0
 sign_1_pkj_pos_20_1: W1_0_1 + 0.5019607843137255 W1_163_1
   + 0.9607843137254902 W1_164_1 + 0.996078431372549 W1_165_1
   + 0.5019607843137255 W1_166_1 + 0.0196078431372549 W1_189_1
   + 0.7098039215686275 W1_190_1 + 0.996078431372549 W1_191_1
   + 0.9921568627450981 W1_192_1 + 0.9725490196078431 W1_193_1
   + 0.3843137254901961 W1_194_1 + 0.0509803921568627 W1_216_1
   + 0.6980392156862745 W1_217_1 + 0.9921568627450981 W1_218_1
   + 0.996078431372549 W1_219_1 + 0.9411764705882353 W1_220_1
   + 0.4235294117647059 W1_221_1 + 0.1333333333333333 W1_236_1
   + 0.1019607843137255 W1_243_1 + 0.8392156862745098 W1_244_1
   + 0.9921568627450981 W1_245_1 + 0.9921568627450981 W1_246_1
   + 0.8941176470588236 W1_247_1 + 0.2862745098039216 W1_248_1
   + 0.407843137254902 W1_263_1 + 0.9607843137254902 W1_264_1
   + 0.4117647058823529 W1_265_1 + 0.8666666666666667 W1_271_1
   + 0.996078431372549 W1_272_1 + 0.996078431372549 W1_273_1
   + 0.996078431372549 W1_274_1 + 0.2666666666666667 W1_275_1
   + 0.0666666666666667 W1_290_1 + 0.8313725490196079 W1_291_1
   + 0.9921568627450981 W1_292_1 + 0.5372549019607843 W1_293_1
   + 0.0196078431372549 W1_297_1 + 0.5764705882352941 W1_298_1
   + 0.996078431372549 W1_299_1 + 0.9921568627450981 W1_300_1
   + 0.9725490196078431 W1_301_1 + 0.4156862745098039 W1_302_1
   + 0.0431372549019608 W1_317_1 + 0.6823529411764706 W1_318_1
   + 0.996078431372549 W1_319_1 + 0.9921568627450981 W1_320_1
   + 0.5372549019607843 W1_321_1 + 0.0862745098039216 W1_324_1
   + 0.6313725490196078 W1_325_1 + 0.9921568627450981 W1_326_1
   + 0.996078431372549 W1_327_1 + 0.9725490196078431 W1_328_1
   + 0.4235294117647059 W1_329_1 + 0.0666666666666667 W1_344_1
   + 0.7803921568627451 W1_345_1 + 0.9921568627450981 W1_346_1
   + 0.996078431372549 W1_347_1 + 0.9254901960784314 W1_348_1
   + 0.2117647058823529 W1_349_1 + 0.5764705882352941 W1_352_1
   + 0.9921568627450981 W1_353_1 + 0.9921568627450981 W1_354_1
   + 0.996078431372549 W1_355_1 + 0.4156862745098039 W1_356_1
   + 0.7764705882352941 W1_372_1 + 0.996078431372549 W1_373_1
   + 0.996078431372549 W1_374_1 + 0.996078431372549 W1_375_1
   + 0.3529411764705883 W1_376_1 + 0.2 W1_378_1 + 0.6 W1_379_1
   + 0.996078431372549 W1_380_1 + 0.996078431372549 W1_381_1
   + 0.996078431372549 W1_382_1 + 0.8235294117647058 W1_383_1
   + 0.0352941176470588 W1_384_1 + 0.4470588235294118 W1_399_1
   + 0.984313725490196 W1_400_1 + 0.9921568627450981 W1_401_1
   + 0.9921568627450981 W1_402_1 + 0.996078431372549 W1_403_1
   + 0.9098039215686274 W1_404_1 + 0.9019607843137255 W1_405_1
   + 0.9686274509803922 W1_406_1 + 0.996078431372549 W1_407_1
   + 0.9921568627450981 W1_408_1 + 0.9921568627450981 W1_409_1
   + 0.9921568627450981 W1_410_1 + 0.9725490196078431 W1_411_1
   + 0.9019607843137255 W1_412_1 + 0.9019607843137255 W1_413_1
   + 0.3803921568627451 W1_414_1 + 0.9294117647058824 W1_427_1
   + 0.9921568627450981 W1_428_1 + 0.9921568627450981 W1_429_1
   + 0.9921568627450981 W1_430_1 + 0.996078431372549 W1_431_1
   + 0.9921568627450981 W1_432_1 + 0.9921568627450981 W1_433_1
   + 0.9921568627450981 W1_434_1 + 0.996078431372549 W1_435_1
   + 0.9921568627450981 W1_436_1 + 0.9921568627450981 W1_437_1
   + 0.9921568627450981 W1_438_1 + 0.996078431372549 W1_439_1
   + 0.9725490196078431 W1_440_1 + 0.5686274509803921 W1_441_1
   + 0.0509803921568627 W1_442_1 + 0.8627450980392157 W1_455_1
   + 0.9921568627450981 W1_456_1 + 0.9921568627450981 W1_457_1
   + 0.9921568627450981 W1_458_1 + 0.996078431372549 W1_459_1
   + 0.9921568627450981 W1_460_1 + 0.9921568627450981 W1_461_1
   + 0.9921568627450981 W1_462_1 + 0.996078431372549 W1_463_1
   + 0.9254901960784314 W1_464_1 + 0.5019607843137255 W1_465_1
   + 0.7607843137254902 W1_466_1 + 0.8941176470588236 W1_467_1
   + 0.2509803921568627 W1_468_1 + 0.3333333333333333 W1_484_1
   + 0.3647058823529412 W1_485_1 + 0.3647058823529412 W1_486_1
   + 0.1333333333333333 W1_487_1 + 0.5450980392156862 W1_488_1
   + 0.996078431372549 W1_489_1 + 0.996078431372549 W1_490_1
   + 0.9254901960784314 W1_491_1 + 0.3294117647058823 W1_492_1
   + 0.1176470588235294 W1_515_1 + 0.8862745098039215 W1_516_1
   + 0.9921568627450981 W1_517_1 + 0.9921568627450981 W1_518_1
   + 0.592156862745098 W1_519_1 + 0.6666666666666666 W1_543_1
   + 0.9921568627450981 W1_544_1 + 0.9921568627450981 W1_545_1
   + 0.6941176470588235 W1_546_1 + 0.2666666666666667 W1_570_1
   + 0.996078431372549 W1_571_1 + 0.9921568627450981 W1_572_1
   + 0.9568627450980393 W1_573_1 + 0.2705882352941176 W1_574_1
   + 0.7254901960784313 W1_598_1 + W1_599_1 + 0.996078431372549 W1_600_1
   + 0.4431372549019608 W1_601_1 + 0.0862745098039216 W1_625_1
   + 0.9686274509803922 W1_626_1 + 0.996078431372549 W1_627_1
   + 0.8235294117647058 W1_628_1 + 0.0823529411764706 W1_629_1
   + 0.0941176470588235 W1_653_1 + 0.9921568627450981 W1_654_1
   + 0.9686274509803922 W1_655_1 + 0.2784313725490196 W1_656_1
   + 0.0588235294117647 W1_681_1 + 0.8941176470588236 W1_682_1
   + 0.592156862745098 W1_683_1 - 20 sign_inner_20_1 >= -19.999
 sign_0_pkj_neg_20_1: W1_0_1 + 0.5019607843137255 W1_163_1
   + 0.9607843137254902 W1_164_1 + 0.996078431372549 W1_165_1
   + 0.5019607843137255 W1_166_1 + 0.0196078431372549 W1_189_1
   + 0.7098039215686275 W1_190_1 + 0.996078431372549 W1_191_1
   + 0.9921568627450981 W1_192_1 + 0.9725490196078431 W1_193_1
   + 0.3843137254901961 W1_194_1 + 0.0509803921568627 W1_216_1
   + 0.6980392156862745 W1_217_1 + 0.9921568627450981 W1_218_1
   + 0.996078431372549 W1_219_1 + 0.9411764705882353 W1_220_1
   + 0.4235294117647059 W1_221_1 + 0.1333333333333333 W1_236_1
   + 0.1019607843137255 W1_243_1 + 0.8392156862745098 W1_244_1
   + 0.9921568627450981 W1_245_1 + 0.9921568627450981 W1_246_1
   + 0.8941176470588236 W1_247_1 + 0.2862745098039216 W1_248_1
   + 0.407843137254902 W1_263_1 + 0.9607843137254902 W1_264_1
   + 0.4117647058823529 W1_265_1 + 0.8666666666666667 W1_271_1
   + 0.996078431372549 W1_272_1 + 0.996078431372549 W1_273_1
   + 0.996078431372549 W1_274_1 + 0.2666666666666667 W1_275_1
   + 0.0666666666666667 W1_290_1 + 0.8313725490196079 W1_291_1
   + 0.9921568627450981 W1_292_1 + 0.5372549019607843 W1_293_1
   + 0.0196078431372549 W1_297_1 + 0.5764705882352941 W1_298_1
   + 0.996078431372549 W1_299_1 + 0.9921568627450981 W1_300_1
   + 0.9725490196078431 W1_301_1 + 0.4156862745098039 W1_302_1
   + 0.0431372549019608 W1_317_1 + 0.6823529411764706 W1_318_1
   + 0.996078431372549 W1_319_1 + 0.9921568627450981 W1_320_1
   + 0.5372549019607843 W1_321_1 + 0.0862745098039216 W1_324_1
   + 0.6313725490196078 W1_325_1 + 0.9921568627450981 W1_326_1
   + 0.996078431372549 W1_327_1 + 0.9725490196078431 W1_328_1
   + 0.4235294117647059 W1_329_1 + 0.0666666666666667 W1_344_1
   + 0.7803921568627451 W1_345_1 + 0.9921568627450981 W1_346_1
   + 0.996078431372549 W1_347_1 + 0.9254901960784314 W1_348_1
   + 0.2117647058823529 W1_349_1 + 0.5764705882352941 W1_352_1
   + 0.9921568627450981 W1_353_1 + 0.9921568627450981 W1_354_1
   + 0.996078431372549 W1_355_1 + 0.4156862745098039 W1_356_1
   + 0.7764705882352941 W1_372_1 + 0.996078431372549 W1_373_1
   + 0.996078431372549 W1_374_1 + 0.996078431372549 W1_375_1
   + 0.3529411764705883 W1_376_1 + 0.2 W1_378_1 + 0.6 W1_379_1
   + 0.996078431372549 W1_380_1 + 0.996078431372549 W1_381_1
   + 0.996078431372549 W1_382_1 + 0.8235294117647058 W1_383_1
   + 0.0352941176470588 W1_384_1 + 0.4470588235294118 W1_399_1
   + 0.984313725490196 W1_400_1 + 0.9921568627450981 W1_401_1
   + 0.9921568627450981 W1_402_1 + 0.996078431372549 W1_403_1
   + 0.9098039215686274 W1_404_1 + 0.9019607843137255 W1_405_1
   + 0.9686274509803922 W1_406_1 + 0.996078431372549 W1_407_1
   + 0.9921568627450981 W1_408_1 + 0.9921568627450981 W1_409_1
   + 0.9921568627450981 W1_410_1 + 0.9725490196078431 W1_411_1
   + 0.9019607843137255 W1_412_1 + 0.9019607843137255 W1_413_1
   + 0.3803921568627451 W1_414_1 + 0.9294117647058824 W1_427_1
   + 0.9921568627450981 W1_428_1 + 0.9921568627450981 W1_429_1
   + 0.9921568627450981 W1_430_1 + 0.996078431372549 W1_431_1
   + 0.9921568627450981 W1_432_1 + 0.9921568627450981 W1_433_1
   + 0.9921568627450981 W1_434_1 + 0.996078431372549 W1_435_1
   + 0.9921568627450981 W1_436_1 + 0.9921568627450981 W1_437_1
   + 0.9921568627450981 W1_438_1 + 0.996078431372549 W1_439_1
   + 0.9725490196078431 W1_440_1 + 0.5686274509803921 W1_441_1
   + 0.0509803921568627 W1_442_1 + 0.8627450980392157 W1_455_1
   + 0.9921568627450981 W1_456_1 + 0.9921568627450981 W1_457_1
   + 0.9921568627450981 W1_458_1 + 0.996078431372549 W1_459_1
   + 0.9921568627450981 W1_460_1 + 0.9921568627450981 W1_461_1
   + 0.9921568627450981 W1_462_1 + 0.996078431372549 W1_463_1
   + 0.9254901960784314 W1_464_1 + 0.5019607843137255 W1_465_1
   + 0.7607843137254902 W1_466_1 + 0.8941176470588236 W1_467_1
   + 0.2509803921568627 W1_468_1 + 0.3333333333333333 W1_484_1
   + 0.3647058823529412 W1_485_1 + 0.3647058823529412 W1_486_1
   + 0.1333333333333333 W1_487_1 + 0.5450980392156862 W1_488_1
   + 0.996078431372549 W1_489_1 + 0.996078431372549 W1_490_1
   + 0.9254901960784314 W1_491_1 + 0.3294117647058823 W1_492_1
   + 0.1176470588235294 W1_515_1 + 0.8862745098039215 W1_516_1
   + 0.9921568627450981 W1_517_1 + 0.9921568627450981 W1_518_1
   + 0.592156862745098 W1_519_1 + 0.6666666666666666 W1_543_1
   + 0.9921568627450981 W1_544_1 + 0.9921568627450981 W1_545_1
   + 0.6941176470588235 W1_546_1 + 0.2666666666666667 W1_570_1
   + 0.996078431372549 W1_571_1 + 0.9921568627450981 W1_572_1
   + 0.9568627450980393 W1_573_1 + 0.2705882352941176 W1_574_1
   + 0.7254901960784313 W1_598_1 + W1_599_1 + 0.996078431372549 W1_600_1
   + 0.4431372549019608 W1_601_1 + 0.0862745098039216 W1_625_1
   + 0.9686274509803922 W1_626_1 + 0.996078431372549 W1_627_1
   + 0.8235294117647058 W1_628_1 + 0.0823529411764706 W1_629_1
   + 0.0941176470588235 W1_653_1 + 0.9921568627450981 W1_654_1
   + 0.9686274509803922 W1_655_1 + 0.2784313725490196 W1_656_1
   + 0.0588235294117647 W1_681_1 + 0.8941176470588236 W1_682_1
   + 0.592156862745098 W1_683_1 - 20 sign_inner_20_1 <= 0
 R3224: w2_neg_0 + w2_zero_0 + w2_pos_0 = 1
 R3225: W2_0 + w2_neg_0 - w2_pos_0 = 0
 R3226: w2_neg_0 + w2_zero_0 + w2_pos_0 = 1
 R3227: W2_1 + w2_neg_0 - w2_pos_0 = 0
 R3228: w2_neg_1 + w2_zero_1 + w2_pos_1 = 1
 R3229: W2_2 + w2_neg_1 - w2_pos_1 = 0
 R3230: - sign_inner_0_0 + prod_0_1_pos <= 0
 R3231: - w2_pos_0 + prod_0_1_pos <= 0
 R3232: - sign_inner_0_0 - w2_pos_0 + prod_0_1_pos >= -1
 R3233: - sign_inner_0_0 + prod_0_1_neg <= 0
 R3234: - w2_neg_0 + prod_0_1_neg <= 0
 R3235: - sign_inner_0_0 - w2_neg_0 + prod_0_1_neg >= -1
 R3236: g_0_1 - prod_0_1_pos + prod_0_1_neg = 0
 R3237: - sign_inner_0_1 + prod_0_2_pos <= 0
 R3238: - w2_pos_1 + prod_0_2_pos <= 0
 R3239: - sign_inner_0_1 - w2_pos_1 + prod_0_2_pos >= -1
 R3240: - sign_inner_0_1 + prod_0_2_neg <= 0
 R3241: - w2_neg_1 + prod_0_2_neg <= 0
 R3242: - sign_inner_0_1 - w2_neg_1 + prod_0_2_neg >= -1
 R3243: g_0_2 - prod_0_2_pos + prod_0_2_neg = 0
 R3244: - sign_inner_1_0 + prod_1_1_pos <= 0
 R3245: - w2_pos_0 + prod_1_1_pos <= 0
 R3246: - sign_inner_1_0 - w2_pos_0 + prod_1_1_pos >= -1
 R3247: - sign_inner_1_0 + prod_1_1_neg <= 0
 R3248: - w2_neg_0 + prod_1_1_neg <= 0
 R3249: - sign_inner_1_0 - w2_neg_0 + prod_1_1_neg >= -1
 R3250: g_1_1 - prod_1_1_pos + prod_1_1_neg = 0
 R3251: - sign_inner_1_1 + prod_1_2_pos <= 0
 R3252: - w2_pos_1 + prod_1_2_pos <= 0
 R3253: - sign_inner_1_1 - w2_pos_1 + prod_1_2_pos >= -1
 R3254: - sign_inner_1_1 + prod_1_2_neg <= 0
 R3255: - w2_neg_1 + prod_1_2_neg <= 0
 R3256: - sign_inner_1_1 - w2_neg_1 + prod_1_2_neg >= -1
 R3257: g_1_2 - prod_1_2_pos + prod_1_2_neg = 0
 R3258: - sign_inner_2_0 + prod_2_1_pos <= 0
 R3259: - w2_pos_0 + prod_2_1_pos <= 0
 R3260: - sign_inner_2_0 - w2_pos_0 + prod_2_1_pos >= -1
 R3261: - sign_inner_2_0 + prod_2_1_neg <= 0
 R3262: - w2_neg_0 + prod_2_1_neg <= 0
 R3263: - sign_inner_2_0 - w2_neg_0 + prod_2_1_neg >= -1
 R3264: g_2_1 - prod_2_1_pos + prod_2_1_neg = 0
 R3265: - sign_inner_2_1 + prod_2_2_pos <= 0
 R3266: - w2_pos_1 + prod_2_2_pos <= 0
 R3267: - sign_inner_2_1 - w2_pos_1 + prod_2_2_pos >= -1
 R3268: - sign_inner_2_1 + prod_2_2_neg <= 0
 R3269: - w2_neg_1 + prod_2_2_neg <= 0
 R3270: - sign_inner_2_1 - w2_neg_1 + prod_2_2_neg >= -1
 R3271: g_2_2 - prod_2_2_pos + prod_2_2_neg = 0
 R3272: - sign_inner_3_0 + prod_3_1_pos <= 0
 R3273: - w2_pos_0 + prod_3_1_pos <= 0
 R3274: - sign_inner_3_0 - w2_pos_0 + prod_3_1_pos >= -1
 R3275: - sign_inner_3_0 + prod_3_1_neg <= 0
 R3276: - w2_neg_0 + prod_3_1_neg <= 0
 R3277: - sign_inner_3_0 - w2_neg_0 + prod_3_1_neg >= -1
 R3278: g_3_1 - prod_3_1_pos + prod_3_1_neg = 0
 R3279: - sign_inner_3_1 + prod_3_2_pos <= 0
 R3280: - w2_pos_1 + prod_3_2_pos <= 0
 R3281: - sign_inner_3_1 - w2_pos_1 + prod_3_2_pos >= -1
 R3282: - sign_inner_3_1 + prod_3_2_neg <= 0
 R3283: - w2_neg_1 + prod_3_2_neg <= 0
 R3284: - sign_inner_3_1 - w2_neg_1 + prod_3_2_neg >= -1
 R3285: g_3_2 - prod_3_2_pos + prod_3_2_neg = 0
 R3286: - sign_inner_4_0 + prod_4_1_pos <= 0
 R3287: - w2_pos_0 + prod_4_1_pos <= 0
 R3288: - sign_inner_4_0 - w2_pos_0 + prod_4_1_pos >= -1
 R3289: - sign_inner_4_0 + prod_4_1_neg <= 0
 R3290: - w2_neg_0 + prod_4_1_neg <= 0
 R3291: - sign_inner_4_0 - w2_neg_0 + prod_4_1_neg >= -1
 R3292: g_4_1 - prod_4_1_pos + prod_4_1_neg = 0
 R3293: - sign_inner_4_1 + prod_4_2_pos <= 0
 R3294: - w2_pos_1 + prod_4_2_pos <= 0
 R3295: - sign_inner_4_1 - w2_pos_1 + prod_4_2_pos >= -1
 R3296: - sign_inner_4_1 + prod_4_2_neg <= 0
 R3297: - w2_neg_1 + prod_4_2_neg <= 0
 R3298: - sign_inner_4_1 - w2_neg_1 + prod_4_2_neg >= -1
 R3299: g_4_2 - prod_4_2_pos + prod_4_2_neg = 0
 R3300: - sign_inner_5_0 + prod_5_1_pos <= 0
 R3301: - w2_pos_0 + prod_5_1_pos <= 0
 R3302: - sign_inner_5_0 - w2_pos_0 + prod_5_1_pos >= -1
 R3303: - sign_inner_5_0 + prod_5_1_neg <= 0
 R3304: - w2_neg_0 + prod_5_1_neg <= 0
 R3305: - sign_inner_5_0 - w2_neg_0 + prod_5_1_neg >= -1
 R3306: g_5_1 - prod_5_1_pos + prod_5_1_neg = 0
 R3307: - sign_inner_5_1 + prod_5_2_pos <= 0
 R3308: - w2_pos_1 + prod_5_2_pos <= 0
 R3309: - sign_inner_5_1 - w2_pos_1 + prod_5_2_pos >= -1
 R3310: - sign_inner_5_1 + prod_5_2_neg <= 0
 R3311: - w2_neg_1 + prod_5_2_neg <= 0
 R3312: - sign_inner_5_1 - w2_neg_1 + prod_5_2_neg >= -1
 R3313: g_5_2 - prod_5_2_pos + prod_5_2_neg = 0
 R3314: - sign_inner_6_0 + prod_6_1_pos <= 0
 R3315: - w2_pos_0 + prod_6_1_pos <= 0
 R3316: - sign_inner_6_0 - w2_pos_0 + prod_6_1_pos >= -1
 R3317: - sign_inner_6_0 + prod_6_1_neg <= 0
 R3318: - w2_neg_0 + prod_6_1_neg <= 0
 R3319: - sign_inner_6_0 - w2_neg_0 + prod_6_1_neg >= -1
 R3320: g_6_1 - prod_6_1_pos + prod_6_1_neg = 0
 R3321: - sign_inner_6_1 + prod_6_2_pos <= 0
 R3322: - w2_pos_1 + prod_6_2_pos <= 0
 R3323: - sign_inner_6_1 - w2_pos_1 + prod_6_2_pos >= -1
 R3324: - sign_inner_6_1 + prod_6_2_neg <= 0
 R3325: - w2_neg_1 + prod_6_2_neg <= 0
 R3326: - sign_inner_6_1 - w2_neg_1 + prod_6_2_neg >= -1
 R3327: g_6_2 - prod_6_2_pos + prod_6_2_neg = 0
 R3328: - sign_inner_7_0 + prod_7_1_pos <= 0
 R3329: - w2_pos_0 + prod_7_1_pos <= 0
 R3330: - sign_inner_7_0 - w2_pos_0 + prod_7_1_pos >= -1
 R3331: - sign_inner_7_0 + prod_7_1_neg <= 0
 R3332: - w2_neg_0 + prod_7_1_neg <= 0
 R3333: - sign_inner_7_0 - w2_neg_0 + prod_7_1_neg >= -1
 R3334: g_7_1 - prod_7_1_pos + prod_7_1_neg = 0
 R3335: - sign_inner_7_1 + prod_7_2_pos <= 0
 R3336: - w2_pos_1 + prod_7_2_pos <= 0
 R3337: - sign_inner_7_1 - w2_pos_1 + prod_7_2_pos >= -1
 R3338: - sign_inner_7_1 + prod_7_2_neg <= 0
 R3339: - w2_neg_1 + prod_7_2_neg <= 0
 R3340: - sign_inner_7_1 - w2_neg_1 + prod_7_2_neg >= -1
 R3341: g_7_2 - prod_7_2_pos + prod_7_2_neg = 0
 R3342: - sign_inner_8_0 + prod_8_1_pos <= 0
 R3343: - w2_pos_0 + prod_8_1_pos <= 0
 R3344: - sign_inner_8_0 - w2_pos_0 + prod_8_1_pos >= -1
 R3345: - sign_inner_8_0 + prod_8_1_neg <= 0
 R3346: - w2_neg_0 + prod_8_1_neg <= 0
 R3347: - sign_inner_8_0 - w2_neg_0 + prod_8_1_neg >= -1
 R3348: g_8_1 - prod_8_1_pos + prod_8_1_neg = 0
 R3349: - sign_inner_8_1 + prod_8_2_pos <= 0
 R3350: - w2_pos_1 + prod_8_2_pos <= 0
 R3351: - sign_inner_8_1 - w2_pos_1 + prod_8_2_pos >= -1
 R3352: - sign_inner_8_1 + prod_8_2_neg <= 0
 R3353: - w2_neg_1 + prod_8_2_neg <= 0
 R3354: - sign_inner_8_1 - w2_neg_1 + prod_8_2_neg >= -1
 R3355: g_8_2 - prod_8_2_pos + prod_8_2_neg = 0
 R3356: - sign_inner_9_0 + prod_9_1_pos <= 0
 R3357: - w2_pos_0 + prod_9_1_pos <= 0
 R3358: - sign_inner_9_0 - w2_pos_0 + prod_9_1_pos >= -1
 R3359: - sign_inner_9_0 + prod_9_1_neg <= 0
 R3360: - w2_neg_0 + prod_9_1_neg <= 0
 R3361: - sign_inner_9_0 - w2_neg_0 + prod_9_1_neg >= -1
 R3362: g_9_1 - prod_9_1_pos + prod_9_1_neg = 0
 R3363: - sign_inner_9_1 + prod_9_2_pos <= 0
 R3364: - w2_pos_1 + prod_9_2_pos <= 0
 R3365: - sign_inner_9_1 - w2_pos_1 + prod_9_2_pos >= -1
 R3366: - sign_inner_9_1 + prod_9_2_neg <= 0
 R3367: - w2_neg_1 + prod_9_2_neg <= 0
 R3368: - sign_inner_9_1 - w2_neg_1 + prod_9_2_neg >= -1
 R3369: g_9_2 - prod_9_2_pos + prod_9_2_neg = 0
 R3370: - sign_inner_10_0 + prod_10_1_pos <= 0
 R3371: - w2_pos_0 + prod_10_1_pos <= 0
 R3372: - sign_inner_10_0 - w2_pos_0 + prod_10_1_pos >= -1
 R3373: - sign_inner_10_0 + prod_10_1_neg <= 0
 R3374: - w2_neg_0 + prod_10_1_neg <= 0
 R3375: - sign_inner_10_0 - w2_neg_0 + prod_10_1_neg >= -1
 R3376: g_10_1 - prod_10_1_pos + prod_10_1_neg = 0
 R3377: - sign_inner_10_1 + prod_10_2_pos <= 0
 R3378: - w2_pos_1 + prod_10_2_pos <= 0
 R3379: - sign_inner_10_1 - w2_pos_1 + prod_10_2_pos >= -1
 R3380: - sign_inner_10_1 + prod_10_2_neg <= 0
 R3381: - w2_neg_1 + prod_10_2_neg <= 0
 R3382: - sign_inner_10_1 - w2_neg_1 + prod_10_2_neg >= -1
 R3383: g_10_2 - prod_10_2_pos + prod_10_2_neg = 0
 R3384: - sign_inner_11_0 + prod_11_1_pos <= 0
 R3385: - w2_pos_0 + prod_11_1_pos <= 0
 R3386: - sign_inner_11_0 - w2_pos_0 + prod_11_1_pos >= -1
 R3387: - sign_inner_11_0 + prod_11_1_neg <= 0
 R3388: - w2_neg_0 + prod_11_1_neg <= 0
 R3389: - sign_inner_11_0 - w2_neg_0 + prod_11_1_neg >= -1
 R3390: g_11_1 - prod_11_1_pos + prod_11_1_neg = 0
 R3391: - sign_inner_11_1 + prod_11_2_pos <= 0
 R3392: - w2_pos_1 + prod_11_2_pos <= 0
 R3393: - sign_inner_11_1 - w2_pos_1 + prod_11_2_pos >= -1
 R3394: - sign_inner_11_1 + prod_11_2_neg <= 0
 R3395: - w2_neg_1 + prod_11_2_neg <= 0
 R3396: - sign_inner_11_1 - w2_neg_1 + prod_11_2_neg >= -1
 R3397: g_11_2 - prod_11_2_pos + prod_11_2_neg = 0
 R3398: - sign_inner_12_0 + prod_12_1_pos <= 0
 R3399: - w2_pos_0 + prod_12_1_pos <= 0
 R3400: - sign_inner_12_0 - w2_pos_0 + prod_12_1_pos >= -1
 R3401: - sign_inner_12_0 + prod_12_1_neg <= 0
 R3402: - w2_neg_0 + prod_12_1_neg <= 0
 R3403: - sign_inner_12_0 - w2_neg_0 + prod_12_1_neg >= -1
 R3404: g_12_1 - prod_12_1_pos + prod_12_1_neg = 0
 R3405: - sign_inner_12_1 + prod_12_2_pos <= 0
 R3406: - w2_pos_1 + prod_12_2_pos <= 0
 R3407: - sign_inner_12_1 - w2_pos_1 + prod_12_2_pos >= -1
 R3408: - sign_inner_12_1 + prod_12_2_neg <= 0
 R3409: - w2_neg_1 + prod_12_2_neg <= 0
 R3410: - sign_inner_12_1 - w2_neg_1 + prod_12_2_neg >= -1
 R3411: g_12_2 - prod_12_2_pos + prod_12_2_neg = 0
 R3412: - sign_inner_13_0 + prod_13_1_pos <= 0
 R3413: - w2_pos_0 + prod_13_1_pos <= 0
 R3414: - sign_inner_13_0 - w2_pos_0 + prod_13_1_pos >= -1
 R3415: - sign_inner_13_0 + prod_13_1_neg <= 0
 R3416: - w2_neg_0 + prod_13_1_neg <= 0
 R3417: - sign_inner_13_0 - w2_neg_0 + prod_13_1_neg >= -1
 R3418: g_13_1 - prod_13_1_pos + prod_13_1_neg = 0
 R3419: - sign_inner_13_1 + prod_13_2_pos <= 0
 R3420: - w2_pos_1 + prod_13_2_pos <= 0
 R3421: - sign_inner_13_1 - w2_pos_1 + prod_13_2_pos >= -1
 R3422: - sign_inner_13_1 + prod_13_2_neg <= 0
 R3423: - w2_neg_1 + prod_13_2_neg <= 0
 R3424: - sign_inner_13_1 - w2_neg_1 + prod_13_2_neg >= -1
 R3425: g_13_2 - prod_13_2_pos + prod_13_2_neg = 0
 R3426: - sign_inner_14_0 + prod_14_1_pos <= 0
 R3427: - w2_pos_0 + prod_14_1_pos <= 0
 R3428: - sign_inner_14_0 - w2_pos_0 + prod_14_1_pos >= -1
 R3429: - sign_inner_14_0 + prod_14_1_neg <= 0
 R3430: - w2_neg_0 + prod_14_1_neg <= 0
 R3431: - sign_inner_14_0 - w2_neg_0 + prod_14_1_neg >= -1
 R3432: g_14_1 - prod_14_1_pos + prod_14_1_neg = 0
 R3433: - sign_inner_14_1 + prod_14_2_pos <= 0
 R3434: - w2_pos_1 + prod_14_2_pos <= 0
 R3435: - sign_inner_14_1 - w2_pos_1 + prod_14_2_pos >= -1
 R3436: - sign_inner_14_1 + prod_14_2_neg <= 0
 R3437: - w2_neg_1 + prod_14_2_neg <= 0
 R3438: - sign_inner_14_1 - w2_neg_1 + prod_14_2_neg >= -1
 R3439: g_14_2 - prod_14_2_pos + prod_14_2_neg = 0
 R3440: - sign_inner_15_0 + prod_15_1_pos <= 0
 R3441: - w2_pos_0 + prod_15_1_pos <= 0
 R3442: - sign_inner_15_0 - w2_pos_0 + prod_15_1_pos >= -1
 R3443: - sign_inner_15_0 + prod_15_1_neg <= 0
 R3444: - w2_neg_0 + prod_15_1_neg <= 0
 R3445: - sign_inner_15_0 - w2_neg_0 + prod_15_1_neg >= -1
 R3446: g_15_1 - prod_15_1_pos + prod_15_1_neg = 0
 R3447: - sign_inner_15_1 + prod_15_2_pos <= 0
 R3448: - w2_pos_1 + prod_15_2_pos <= 0
 R3449: - sign_inner_15_1 - w2_pos_1 + prod_15_2_pos >= -1
 R3450: - sign_inner_15_1 + prod_15_2_neg <= 0
 R3451: - w2_neg_1 + prod_15_2_neg <= 0
 R3452: - sign_inner_15_1 - w2_neg_1 + prod_15_2_neg >= -1
 R3453: g_15_2 - prod_15_2_pos + prod_15_2_neg = 0
 R3454: - sign_inner_16_0 + prod_16_1_pos <= 0
 R3455: - w2_pos_0 + prod_16_1_pos <= 0
 R3456: - sign_inner_16_0 - w2_pos_0 + prod_16_1_pos >= -1
 R3457: - sign_inner_16_0 + prod_16_1_neg <= 0
 R3458: - w2_neg_0 + prod_16_1_neg <= 0
 R3459: - sign_inner_16_0 - w2_neg_0 + prod_16_1_neg >= -1
 R3460: g_16_1 - prod_16_1_pos + prod_16_1_neg = 0
 R3461: - sign_inner_16_1 + prod_16_2_pos <= 0
 R3462: - w2_pos_1 + prod_16_2_pos <= 0
 R3463: - sign_inner_16_1 - w2_pos_1 + prod_16_2_pos >= -1
 R3464: - sign_inner_16_1 + prod_16_2_neg <= 0
 R3465: - w2_neg_1 + prod_16_2_neg <= 0
 R3466: - sign_inner_16_1 - w2_neg_1 + prod_16_2_neg >= -1
 R3467: g_16_2 - prod_16_2_pos + prod_16_2_neg = 0
 R3468: - sign_inner_17_0 + prod_17_1_pos <= 0
 R3469: - w2_pos_0 + prod_17_1_pos <= 0
 R3470: - sign_inner_17_0 - w2_pos_0 + prod_17_1_pos >= -1
 R3471: - sign_inner_17_0 + prod_17_1_neg <= 0
 R3472: - w2_neg_0 + prod_17_1_neg <= 0
 R3473: - sign_inner_17_0 - w2_neg_0 + prod_17_1_neg >= -1
 R3474: g_17_1 - prod_17_1_pos + prod_17_1_neg = 0
 R3475: - sign_inner_17_1 + prod_17_2_pos <= 0
 R3476: - w2_pos_1 + prod_17_2_pos <= 0
 R3477: - sign_inner_17_1 - w2_pos_1 + prod_17_2_pos >= -1
 R3478: - sign_inner_17_1 + prod_17_2_neg <= 0
 R3479: - w2_neg_1 + prod_17_2_neg <= 0
 R3480: - sign_inner_17_1 - w2_neg_1 + prod_17_2_neg >= -1
 R3481: g_17_2 - prod_17_2_pos + prod_17_2_neg = 0
 R3482: - sign_inner_18_0 + prod_18_1_pos <= 0
 R3483: - w2_pos_0 + prod_18_1_pos <= 0
 R3484: - sign_inner_18_0 - w2_pos_0 + prod_18_1_pos >= -1
 R3485: - sign_inner_18_0 + prod_18_1_neg <= 0
 R3486: - w2_neg_0 + prod_18_1_neg <= 0
 R3487: - sign_inner_18_0 - w2_neg_0 + prod_18_1_neg >= -1
 R3488: g_18_1 - prod_18_1_pos + prod_18_1_neg = 0
 R3489: - sign_inner_18_1 + prod_18_2_pos <= 0
 R3490: - w2_pos_1 + prod_18_2_pos <= 0
 R3491: - sign_inner_18_1 - w2_pos_1 + prod_18_2_pos >= -1
 R3492: - sign_inner_18_1 + prod_18_2_neg <= 0
 R3493: - w2_neg_1 + prod_18_2_neg <= 0
 R3494: - sign_inner_18_1 - w2_neg_1 + prod_18_2_neg >= -1
 R3495: g_18_2 - prod_18_2_pos + prod_18_2_neg = 0
 R3496: - sign_inner_19_0 + prod_19_1_pos <= 0
 R3497: - w2_pos_0 + prod_19_1_pos <= 0
 R3498: - sign_inner_19_0 - w2_pos_0 + prod_19_1_pos >= -1
 R3499: - sign_inner_19_0 + prod_19_1_neg <= 0
 R3500: - w2_neg_0 + prod_19_1_neg <= 0
 R3501: - sign_inner_19_0 - w2_neg_0 + prod_19_1_neg >= -1
 R3502: g_19_1 - prod_19_1_pos + prod_19_1_neg = 0
 R3503: - sign_inner_19_1 + prod_19_2_pos <= 0
 R3504: - w2_pos_1 + prod_19_2_pos <= 0
 R3505: - sign_inner_19_1 - w2_pos_1 + prod_19_2_pos >= -1
 R3506: - sign_inner_19_1 + prod_19_2_neg <= 0
 R3507: - w2_neg_1 + prod_19_2_neg <= 0
 R3508: - sign_inner_19_1 - w2_neg_1 + prod_19_2_neg >= -1
 R3509: g_19_2 - prod_19_2_pos + prod_19_2_neg = 0
 R3510: - sign_inner_20_0 + prod_20_1_pos <= 0
 R3511: - w2_pos_0 + prod_20_1_pos <= 0
 R3512: - sign_inner_20_0 - w2_pos_0 + prod_20_1_pos >= -1
 R3513: - sign_inner_20_0 + prod_20_1_neg <= 0
 R3514: - w2_neg_0 + prod_20_1_neg <= 0
 R3515: - sign_inner_20_0 - w2_neg_0 + prod_20_1_neg >= -1
 R3516: g_20_1 - prod_20_1_pos + prod_20_1_neg = 0
 R3517: - sign_inner_20_1 + prod_20_2_pos <= 0
 R3518: - w2_pos_1 + prod_20_2_pos <= 0
 R3519: - sign_inner_20_1 - w2_pos_1 + prod_20_2_pos >= -1
 R3520: - sign_inner_20_1 + prod_20_2_neg <= 0
 R3521: - w2_neg_1 + prod_20_2_neg <= 0
 R3522: - sign_inner_20_1 - w2_neg_1 + prod_20_2_neg >= -1
 R3523: g_20_2 - prod_20_2_pos + prod_20_2_neg = 0
 R3524: - w2_neg_2 - w2_pos_2 + abs_W2_0 = 0
 R3525: - w2_neg_0 - w2_pos_0 + abs_W2_1 = 0
 R3526: - w2_neg_1 - w2_pos_1 + abs_W2_2 = 0
 R3527: - W2_0 + W2_1 + W2_2 - 2 g_0_1 - 2 g_0_2 + q_0 = 0
 R3528: - W2_0 + W2_1 + W2_2 - 2 g_1_1 - 2 g_1_2 + q_1 = 0
 R3529: - W2_0 + W2_1 + W2_2 - 2 g_2_1 - 2 g_2_2 + q_2 = 0
 R3530: - W2_0 + W2_1 + W2_2 - 2 g_3_1 - 2 g_3_2 + q_3 = 0
 R3531: - W2_0 + W2_1 + W2_2 - 2 g_4_1 - 2 g_4_2 + q_4 = 0
 R3532: - W2_0 + W2_1 + W2_2 - 2 g_5_1 - 2 g_5_2 + q_5 = 0
 R3533: - W2_0 + W2_1 + W2_2 - 2 g_6_1 - 2 g_6_2 + q_6 = 0
 R3534: - W2_0 + W2_1 + W2_2 - 2 g_7_1 - 2 g_7_2 + q_7 = 0
 R3535: - W2_0 + W2_1 + W2_2 - 2 g_8_1 - 2 g_8_2 + q_8 = 0
 R3536: - W2_0 + W2_1 + W2_2 - 2 g_9_1 - 2 g_9_2 + q_9 = 0
 R3537: - W2_0 + W2_1 + W2_2 - 2 g_10_1 - 2 g_10_2 + q_10 = 0
 R3538: - W2_0 + W2_1 + W2_2 - 2 g_11_1 - 2 g_11_2 + q_11 = 0
 R3539: - W2_0 + W2_1 + W2_2 - 2 g_12_1 - 2 g_12_2 + q_12 = 0
 R3540: - W2_0 + W2_1 + W2_2 - 2 g_13_1 - 2 g_13_2 + q_13 = 0
 R3541: - W2_0 + W2_1 + W2_2 - 2 g_14_1 - 2 g_14_2 + q_14 = 0
 R3542: - W2_0 + W2_1 + W2_2 - 2 g_15_1 - 2 g_15_2 + q_15 = 0
 R3543: - W2_0 + W2_1 + W2_2 - 2 g_16_1 - 2 g_16_2 + q_16 = 0
 R3544: - W2_0 + W2_1 + W2_2 - 2 g_17_1 - 2 g_17_2 + q_17 = 0
 R3545: - W2_0 + W2_1 + W2_2 - 2 g_18_1 - 2 g_18_2 + q_18 = 0
 R3546: - W2_0 + W2_1 + W2_2 - 2 g_19_1 - 2 g_19_2 + q_19 = 0
 R3547: - W2_0 + W2_1 + W2_2 - 2 g_20_1 - 2 g_20_2 + q_20 = 0
 R3548: q_0 - 4 sign_outer0 >= -3
 R3549: q_0 - 4 sign_outer0 <= 0
 R3550: q_1 - 4 sign_outer1 >= -3
 R3551: q_1 - 4 sign_outer1 <= 0
 R3552: q_2 - 4 sign_outer2 >= -3
 R3553: q_2 - 4 sign_outer2 <= 0
 R3554: q_3 - 4 sign_outer3 >= -3
 R3555: q_3 - 4 sign_outer3 <= 0
 R3556: q_4 - 4 sign_outer4 >= -3
 R3557: q_4 - 4 sign_outer4 <= 0
 R3558: q_5 - 4 sign_outer5 >= -3
 R3559: q_5 - 4 sign_outer5 <= 0
 R3560: q_6 - 4 sign_outer6 >= -3
 R3561: q_6 - 4 sign_outer6 <= 0
 R3562: q_7 - 4 sign_outer7 >= -3
 R3563: q_7 - 4 sign_outer7 <= 0
 R3564: q_8 - 4 sign_outer8 >= -3
 R3565: q_8 - 4 sign_outer8 <= 0
 R3566: q_9 - 4 sign_outer9 >= -3
 R3567: q_9 - 4 sign_outer9 <= 0
 R3568: q_10 - 4 sign_outer10 >= -3
 R3569: q_10 - 4 sign_outer10 <= 0
 R3570: q_11 - 4 sign_outer11 >= -3
 R3571: q_11 - 4 sign_outer11 <= 0
 R3572: q_12 - 4 sign_outer12 >= -3
 R3573: q_12 - 4 sign_outer12 <= 0
 R3574: q_13 - 4 sign_outer13 >= -3
 R3575: q_13 - 4 sign_outer13 <= 0
 R3576: q_14 - 4 sign_outer14 >= -3
 R3577: q_14 - 4 sign_outer14 <= 0
 R3578: q_15 - 4 sign_outer15 >= -3
 R3579: q_15 - 4 sign_outer15 <= 0
 R3580: q_16 - 4 sign_outer16 >= -3
 R3581: q_16 - 4 sign_outer16 <= 0
 R3582: q_17 - 4 sign_outer17 >= -3
 R3583: q_17 - 4 sign_outer17 <= 0
 R3584: q_18 - 4 sign_outer18 >= -3
 R3585: q_18 - 4 sign_outer18 <= 0
 R3586: q_19 - 4 sign_outer19 >= -3
 R3587: q_19 - 4 sign_outer19 <= 0
 R3588: q_20 - 4 sign_outer20 >= -3
 R3589: q_20 - 4 sign_outer20 <= 0
 R3590: - sign_outer0 + val_abs0 >= -1
 R3591: sign_outer0 + val_abs0 >= 1
 R3592: - sign_outer1 + val_abs1 >= -1
 R3593: sign_outer1 + val_abs1 >= 1
 R3594: - sign_outer2 + val_abs2 >= -1
 R3595: sign_outer2 + val_abs2 >= 1
 R3596: - sign_outer3 + val_abs3 >= -1
 R3597: sign_outer3 + val_abs3 >= 1
 R3598: - sign_outer4 + val_abs4 >= 0
 R3599: sign_outer4 + val_abs4 >= 0
 R3600: - sign_outer5 + val_abs5 >= 0
 R3601: sign_outer5 + val_abs5 >= 0
 R3602: - sign_outer6 + val_abs6 >= -1
 R3603: sign_outer6 + val_abs6 >= 1
 R3604: - sign_outer7 + val_abs7 >= -1
 R3605: sign_outer7 + val_abs7 >= 1
 R3606: - sign_outer8 + val_abs8 >= 0
 R3607: sign_outer8 + val_abs8 >= 0
 R3608: - sign_outer9 + val_abs9 >= -1
 R3609: sign_outer9 + val_abs9 >= 1
 R3610: - sign_outer10 + val_abs10 >= 0
 R3611: sign_outer10 + val_abs10 >= 0
 R3612: - sign_outer11 + val_abs11 >= 0
 R3613: sign_outer11 + val_abs11 >= 0
 R3614: - sign_outer12 + val_abs12 >= 0
 R3615: sign_outer12 + val_abs12 >= 0
 R3616: - sign_outer13 + val_abs13 >= 0
 R3617: sign_outer13 + val_abs13 >= 0
 R3618: - sign_outer14 + val_abs14 >= -1
 R3619: sign_outer14 + val_abs14 >= 1
 R3620: - sign_outer15 + val_abs15 >= -1
 R3621: sign_outer15 + val_abs15 >= 1
 R3622: - sign_outer16 + val_abs16 >= 0
 R3623: sign_outer16 + val_abs16 >= 0
 R3624: - sign_outer17 + val_abs17 >= 0
 R3625: sign_outer17 + val_abs17 >= 0
 R3626: - sign_outer18 + val_abs18 >= 0
 R3627: sign_outer18 + val_abs18 >= 0
 R3628: - sign_outer19 + val_abs19 >= -1
 R3629: sign_outer19 + val_abs19 >= 1
 R3630: - sign_outer20 + val_abs20 >= -1
 R3631: sign_outer20 + val_abs20 >= 1
Bounds
 -1 <= W1_0_0 <= 1
 -1 <= W1_0_1 <= 1
 -1 <= W1_1_0 <= 1
 -1 <= W1_1_1 <= 1
 -1 <= W1_2_0 <= 1
 -1 <= W1_2_1 <= 1
 -1 <= W1_3_0 <= 1
 -1 <= W1_3_1 <= 1
 -1 <= W1_4_0 <= 1
 -1 <= W1_4_1 <= 1
 -1 <= W1_5_0 <= 1
 -1 <= W1_5_1 <= 1
 -1 <= W1_6_0 <= 1
 -1 <= W1_6_1 <= 1
 -1 <= W1_7_0 <= 1
 -1 <= W1_7_1 <= 1
 -1 <= W1_8_0 <= 1
 -1 <= W1_8_1 <= 1
 -1 <= W1_9_0 <= 1
 -1 <= W1_9_1 <= 1
 -1 <= W1_10_0 <= 1
 -1 <= W1_10_1 <= 1
 -1 <= W1_11_0 <= 1
 -1 <= W1_11_1 <= 1
 -1 <= W1_12_0 <= 1
 -1 <= W1_12_1 <= 1
 -1 <= W1_13_0 <= 1
 -1 <= W1_13_1 <= 1
 -1 <= W1_14_0 <= 1
 -1 <= W1_14_1 <= 1
 -1 <= W1_15_0 <= 1
 -1 <= W1_15_1 <= 1
 -1 <= W1_16_0 <= 1
 -1 <= W1_16_1 <= 1
 -1 <= W1_17_0 <= 1
 -1 <= W1_17_1 <= 1
 -1 <= W1_18_0 <= 1
 -1 <= W1_18_1 <= 1
 -1 <= W1_19_0 <= 1
 -1 <= W1_19_1 <= 1
 -1 <= W1_20_0 <= 1
 -1 <= W1_20_1 <= 1
 -1 <= W1_21_0 <= 1
 -1 <= W1_21_1 <= 1
 -1 <= W1_22_0 <= 1
 -1 <= W1_22_1 <= 1
 -1 <= W1_23_0 <= 1
 -1 <= W1_23_1 <= 1
 -1 <= W1_24_0 <= 1
 -1 <= W1_24_1 <= 1
 -1 <= W1_25_0 <= 1
 -1 <= W1_25_1 <= 1
 -1 <= W1_26_0 <= 1
 -1 <= W1_26_1 <= 1
 -1 <= W1_27_0 <= 1
 -1 <= W1_27_1 <= 1
 -1 <= W1_28_0 <= 1
 -1 <= W1_28_1 <= 1
 -1 <= W1_29_0 <= 1
 -1 <= W1_29_1 <= 1
 -1 <= W1_30_0 <= 1
 -1 <= W1_30_1 <= 1
 -1 <= W1_31_0 <= 1
 -1 <= W1_31_1 <= 1
 -1 <= W1_32_0 <= 1
 -1 <= W1_32_1 <= 1
 -1 <= W1_33_0 <= 1
 -1 <= W1_33_1 <= 1
 -1 <= W1_34_0 <= 1
 -1 <= W1_34_1 <= 1
 -1 <= W1_35_0 <= 1
 -1 <= W1_35_1 <= 1
 -1 <= W1_36_0 <= 1
 -1 <= W1_36_1 <= 1
 -1 <= W1_37_0 <= 1
 -1 <= W1_37_1 <= 1
 -1 <= W1_38_0 <= 1
 -1 <= W1_38_1 <= 1
 -1 <= W1_39_0 <= 1
 -1 <= W1_39_1 <= 1
 -1 <= W1_40_0 <= 1
 -1 <= W1_40_1 <= 1
 -1 <= W1_41_0 <= 1
 -1 <= W1_41_1 <= 1
 -1 <= W1_42_0 <= 1
 -1 <= W1_42_1 <= 1
 -1 <= W1_43_0 <= 1
 -1 <= W1_43_1 <= 1
 -1 <= W1_44_0 <= 1
 -1 <= W1_44_1 <= 1
 -1 <= W1_45_0 <= 1
 -1 <= W1_45_1 <= 1
 -1 <= W1_46_0 <= 1
 -1 <= W1_46_1 <= 1
 -1 <= W1_47_0 <= 1
 -1 <= W1_47_1 <= 1
 -1 <= W1_48_0 <= 1
 -1 <= W1_48_1 <= 1
 -1 <= W1_49_0 <= 1
 -1 <= W1_49_1 <= 1
 -1 <= W1_50_0 <= 1
 -1 <= W1_50_1 <= 1
 -1 <= W1_51_0 <= 1
 -1 <= W1_51_1 <= 1
 -1 <= W1_52_0 <= 1
 -1 <= W1_52_1 <= 1
 -1 <= W1_53_0 <= 1
 -1 <= W1_53_1 <= 1
 -1 <= W1_54_0 <= 1
 -1 <= W1_54_1 <= 1
 -1 <= W1_55_0 <= 1
 -1 <= W1_55_1 <= 1
 -1 <= W1_56_0 <= 1
 -1 <= W1_56_1 <= 1
 -1 <= W1_57_0 <= 1
 -1 <= W1_57_1 <= 1
 -1 <= W1_58_0 <= 1
 -1 <= W1_58_1 <= 1
 -1 <= W1_59_0 <= 1
 -1 <= W1_59_1 <= 1
 -1 <= W1_60_0 <= 1
 -1 <= W1_60_1 <= 1
 -1 <= W1_61_0 <= 1
 -1 <= W1_61_1 <= 1
 -1 <= W1_62_0 <= 1
 -1 <= W1_62_1 <= 1
 -1 <= W1_63_0 <= 1
 -1 <= W1_63_1 <= 1
 -1 <= W1_64_0 <= 1
 -1 <= W1_64_1 <= 1
 -1 <= W1_65_0 <= 1
 -1 <= W1_65_1 <= 1
 -1 <= W1_66_0 <= 1
 -1 <= W1_66_1 <= 1
 -1 <= W1_67_0 <= 1
 -1 <= W1_67_1 <= 1
 -1 <= W1_68_0 <= 1
 -1 <= W1_68_1 <= 1
 -1 <= W1_69_0 <= 1
 -1 <= W1_69_1 <= 1
 -1 <= W1_70_0 <= 1
 -1 <= W1_70_1 <= 1
 -1 <= W1_71_0 <= 1
 -1 <= W1_71_1 <= 1
 -1 <= W1_72_0 <= 1
 -1 <= W1_72_1 <= 1
 -1 <= W1_73_0 <= 1
 -1 <= W1_73_1 <= 1
 -1 <= W1_74_0 <= 1
 -1 <= W1_74_1 <= 1
 -1 <= W1_75_0 <= 1
 -1 <= W1_75_1 <= 1
 -1 <= W1_76_0 <= 1
 -1 <= W1_76_1 <= 1
 -1 <= W1_77_0 <= 1
 -1 <= W1_77_1 <= 1
 -1 <= W1_78_0 <= 1
 -1 <= W1_78_1 <= 1
 -1 <= W1_79_0 <= 1
 -1 <= W1_79_1 <= 1
 -1 <= W1_80_0 <= 1
 -1 <= W1_80_1 <= 1
 -1 <= W1_81_0 <= 1
 -1 <= W1_81_1 <= 1
 -1 <= W1_82_0 <= 1
 -1 <= W1_82_1 <= 1
 -1 <= W1_83_0 <= 1
 -1 <= W1_83_1 <= 1
 -1 <= W1_84_0 <= 1
 -1 <= W1_84_1 <= 1
 -1 <= W1_85_0 <= 1
 -1 <= W1_85_1 <= 1
 -1 <= W1_86_0 <= 1
 -1 <= W1_86_1 <= 1
 -1 <= W1_87_0 <= 1
 -1 <= W1_87_1 <= 1
 -1 <= W1_88_0 <= 1
 -1 <= W1_88_1 <= 1
 -1 <= W1_89_0 <= 1
 -1 <= W1_89_1 <= 1
 -1 <= W1_90_0 <= 1
 -1 <= W1_90_1 <= 1
 -1 <= W1_91_0 <= 1
 -1 <= W1_91_1 <= 1
 -1 <= W1_92_0 <= 1
 -1 <= W1_92_1 <= 1
 -1 <= W1_93_0 <= 1
 -1 <= W1_93_1 <= 1
 -1 <= W1_94_0 <= 1
 -1 <= W1_94_1 <= 1
 -1 <= W1_95_0 <= 1
 -1 <= W1_95_1 <= 1
 -1 <= W1_96_0 <= 1
 -1 <= W1_96_1 <= 1
 -1 <= W1_97_0 <= 1
 -1 <= W1_97_1 <= 1
 -1 <= W1_98_0 <= 1
 -1 <= W1_98_1 <= 1
 -1 <= W1_99_0 <= 1
 -1 <= W1_99_1 <= 1
 -1 <= W1_100_0 <= 1
 -1 <= W1_100_1 <= 1
 -1 <= W1_101_0 <= 1
 -1 <= W1_101_1 <= 1
 -1 <= W1_102_0 <= 1
 -1 <= W1_102_1 <= 1
 -1 <= W1_103_0 <= 1
 -1 <= W1_103_1 <= 1
 -1 <= W1_104_0 <= 1
 -1 <= W1_104_1 <= 1
 -1 <= W1_105_0 <= 1
 -1 <= W1_105_1 <= 1
 -1 <= W1_106_0 <= 1
 -1 <= W1_106_1 <= 1
 -1 <= W1_107_0 <= 1
 -1 <= W1_107_1 <= 1
 -1 <= W1_108_0 <= 1
 -1 <= W1_108_1 <= 1
 -1 <= W1_109_0 <= 1
 -1 <= W1_109_1 <= 1
 -1 <= W1_110_0 <= 1
 -1 <= W1_110_1 <= 1
 -1 <= W1_111_0 <= 1
 -1 <= W1_111_1 <= 1
 -1 <= W1_112_0 <= 1
 -1 <= W1_112_1 <= 1
 -1 <= W1_113_0 <= 1
 -1 <= W1_113_1 <= 1
 -1 <= W1_114_0 <= 1
 -1 <= W1_114_1 <= 1
 -1 <= W1_115_0 <= 1
 -1 <= W1_115_1 <= 1
 -1 <= W1_116_0 <= 1
 -1 <= W1_116_1 <= 1
 -1 <= W1_117_0 <= 1
 -1 <= W1_117_1 <= 1
 -1 <= W1_118_0 <= 1
 -1 <= W1_118_1 <= 1
 -1 <= W1_119_0 <= 1
 -1 <= W1_119_1 <= 1
 -1 <= W1_120_0 <= 1
 -1 <= W1_120_1 <= 1
 -1 <= W1_121_0 <= 1
 -1 <= W1_121_1 <= 1
 -1 <= W1_122_0 <= 1
 -1 <= W1_122_1 <= 1
 -1 <= W1_123_0 <= 1
 -1 <= W1_123_1 <= 1
 -1 <= W1_124_0 <= 1
 -1 <= W1_124_1 <= 1
 -1 <= W1_125_0 <= 1
 -1 <= W1_125_1 <= 1
 -1 <= W1_126_0 <= 1
 -1 <= W1_126_1 <= 1
 -1 <= W1_127_0 <= 1
 -1 <= W1_127_1 <= 1
 -1 <= W1_128_0 <= 1
 -1 <= W1_128_1 <= 1
 -1 <= W1_129_0 <= 1
 -1 <= W1_129_1 <= 1
 -1 <= W1_130_0 <= 1
 -1 <= W1_130_1 <= 1
 -1 <= W1_131_0 <= 1
 -1 <= W1_131_1 <= 1
 -1 <= W1_132_0 <= 1
 -1 <= W1_132_1 <= 1
 -1 <= W1_133_0 <= 1
 -1 <= W1_133_1 <= 1
 -1 <= W1_134_0 <= 1
 -1 <= W1_134_1 <= 1
 -1 <= W1_135_0 <= 1
 -1 <= W1_135_1 <= 1
 -1 <= W1_136_0 <= 1
 -1 <= W1_136_1 <= 1
 -1 <= W1_137_0 <= 1
 -1 <= W1_137_1 <= 1
 -1 <= W1_138_0 <= 1
 -1 <= W1_138_1 <= 1
 -1 <= W1_139_0 <= 1
 -1 <= W1_139_1 <= 1
 -1 <= W1_140_0 <= 1
 -1 <= W1_140_1 <= 1
 -1 <= W1_141_0 <= 1
 -1 <= W1_141_1 <= 1
 -1 <= W1_142_0 <= 1
 -1 <= W1_142_1 <= 1
 -1 <= W1_143_0 <= 1
 -1 <= W1_143_1 <= 1
 -1 <= W1_144_0 <= 1
 -1 <= W1_144_1 <= 1
 -1 <= W1_145_0 <= 1
 -1 <= W1_145_1 <= 1
 -1 <= W1_146_0 <= 1
 -1 <= W1_146_1 <= 1
 -1 <= W1_147_0 <= 1
 -1 <= W1_147_1 <= 1
 -1 <= W1_148_0 <= 1
 -1 <= W1_148_1 <= 1
 -1 <= W1_149_0 <= 1
 -1 <= W1_149_1 <= 1
 -1 <= W1_150_0 <= 1
 -1 <= W1_150_1 <= 1
 -1 <= W1_151_0 <= 1
 -1 <= W1_151_1 <= 1
 -1 <= W1_152_0 <= 1
 -1 <= W1_152_1 <= 1
 -1 <= W1_153_0 <= 1
 -1 <= W1_153_1 <= 1
 -1 <= W1_154_0 <= 1
 -1 <= W1_154_1 <= 1
 -1 <= W1_155_0 <= 1
 -1 <= W1_155_1 <= 1
 -1 <= W1_156_0 <= 1
 -1 <= W1_156_1 <= 1
 -1 <= W1_157_0 <= 1
 -1 <= W1_157_1 <= 1
 -1 <= W1_158_0 <= 1
 -1 <= W1_158_1 <= 1
 -1 <= W1_159_0 <= 1
 -1 <= W1_159_1 <= 1
 -1 <= W1_160_0 <= 1
 -1 <= W1_160_1 <= 1
 -1 <= W1_161_0 <= 1
 -1 <= W1_161_1 <= 1
 -1 <= W1_162_0 <= 1
 -1 <= W1_162_1 <= 1
 -1 <= W1_163_0 <= 1
 -1 <= W1_163_1 <= 1
 -1 <= W1_164_0 <= 1
 -1 <= W1_164_1 <= 1
 -1 <= W1_165_0 <= 1
 -1 <= W1_165_1 <= 1
 -1 <= W1_166_0 <= 1
 -1 <= W1_166_1 <= 1
 -1 <= W1_167_0 <= 1
 -1 <= W1_167_1 <= 1
 -1 <= W1_168_0 <= 1
 -1 <= W1_168_1 <= 1
 -1 <= W1_169_0 <= 1
 -1 <= W1_169_1 <= 1
 -1 <= W1_170_0 <= 1
 -1 <= W1_170_1 <= 1
 -1 <= W1_171_0 <= 1
 -1 <= W1_171_1 <= 1
 -1 <= W1_172_0 <= 1
 -1 <= W1_172_1 <= 1
 -1 <= W1_173_0 <= 1
 -1 <= W1_173_1 <= 1
 -1 <= W1_174_0 <= 1
 -1 <= W1_174_1 <= 1
 -1 <= W1_175_0 <= 1
 -1 <= W1_175_1 <= 1
 -1 <= W1_176_0 <= 1
 -1 <= W1_176_1 <= 1
 -1 <= W1_177_0 <= 1
 -1 <= W1_177_1 <= 1
 -1 <= W1_178_0 <= 1
 -1 <= W1_178_1 <= 1
 -1 <= W1_179_0 <= 1
 -1 <= W1_179_1 <= 1
 -1 <= W1_180_0 <= 1
 -1 <= W1_180_1 <= 1
 -1 <= W1_181_0 <= 1
 -1 <= W1_181_1 <= 1
 -1 <= W1_182_0 <= 1
 -1 <= W1_182_1 <= 1
 -1 <= W1_183_0 <= 1
 -1 <= W1_183_1 <= 1
 -1 <= W1_184_0 <= 1
 -1 <= W1_184_1 <= 1
 -1 <= W1_185_0 <= 1
 -1 <= W1_185_1 <= 1
 -1 <= W1_186_0 <= 1
 -1 <= W1_186_1 <= 1
 -1 <= W1_187_0 <= 1
 -1 <= W1_187_1 <= 1
 -1 <= W1_188_0 <= 1
 -1 <= W1_188_1 <= 1
 -1 <= W1_189_0 <= 1
 -1 <= W1_189_1 <= 1
 -1 <= W1_190_0 <= 1
 -1 <= W1_190_1 <= 1
 -1 <= W1_191_0 <= 1
 -1 <= W1_191_1 <= 1
 -1 <= W1_192_0 <= 1
 -1 <= W1_192_1 <= 1
 -1 <= W1_193_0 <= 1
 -1 <= W1_193_1 <= 1
 -1 <= W1_194_0 <= 1
 -1 <= W1_194_1 <= 1
 -1 <= W1_195_0 <= 1
 -1 <= W1_195_1 <= 1
 -1 <= W1_196_0 <= 1
 -1 <= W1_196_1 <= 1
 -1 <= W1_197_0 <= 1
 -1 <= W1_197_1 <= 1
 -1 <= W1_198_0 <= 1
 -1 <= W1_198_1 <= 1
 -1 <= W1_199_0 <= 1
 -1 <= W1_199_1 <= 1
 -1 <= W1_200_0 <= 1
 -1 <= W1_200_1 <= 1
 -1 <= W1_201_0 <= 1
 -1 <= W1_201_1 <= 1
 -1 <= W1_202_0 <= 1
 -1 <= W1_202_1 <= 1
 -1 <= W1_203_0 <= 1
 -1 <= W1_203_1 <= 1
 -1 <= W1_204_0 <= 1
 -1 <= W1_204_1 <= 1
 -1 <= W1_205_0 <= 1
 -1 <= W1_205_1 <= 1
 -1 <= W1_206_0 <= 1
 -1 <= W1_206_1 <= 1
 -1 <= W1_207_0 <= 1
 -1 <= W1_207_1 <= 1
 -1 <= W1_208_0 <= 1
 -1 <= W1_208_1 <= 1
 -1 <= W1_209_0 <= 1
 -1 <= W1_209_1 <= 1
 -1 <= W1_210_0 <= 1
 -1 <= W1_210_1 <= 1
 -1 <= W1_211_0 <= 1
 -1 <= W1_211_1 <= 1
 -1 <= W1_212_0 <= 1
 -1 <= W1_212_1 <= 1
 -1 <= W1_213_0 <= 1
 -1 <= W1_213_1 <= 1
 -1 <= W1_214_0 <= 1
 -1 <= W1_214_1 <= 1
 -1 <= W1_215_0 <= 1
 -1 <= W1_215_1 <= 1
 -1 <= W1_216_0 <= 1
 -1 <= W1_216_1 <= 1
 -1 <= W1_217_0 <= 1
 -1 <= W1_217_1 <= 1
 -1 <= W1_218_0 <= 1
 -1 <= W1_218_1 <= 1
 -1 <= W1_219_0 <= 1
 -1 <= W1_219_1 <= 1
 -1 <= W1_220_0 <= 1
 -1 <= W1_220_1 <= 1
 -1 <= W1_221_0 <= 1
 -1 <= W1_221_1 <= 1
 -1 <= W1_222_0 <= 1
 -1 <= W1_222_1 <= 1
 -1 <= W1_223_0 <= 1
 -1 <= W1_223_1 <= 1
 -1 <= W1_224_0 <= 1
 -1 <= W1_224_1 <= 1
 -1 <= W1_225_0 <= 1
 -1 <= W1_225_1 <= 1
 -1 <= W1_226_0 <= 1
 -1 <= W1_226_1 <= 1
 -1 <= W1_227_0 <= 1
 -1 <= W1_227_1 <= 1
 -1 <= W1_228_0 <= 1
 -1 <= W1_228_1 <= 1
 -1 <= W1_229_0 <= 1
 -1 <= W1_229_1 <= 1
 -1 <= W1_230_0 <= 1
 -1 <= W1_230_1 <= 1
 -1 <= W1_231_0 <= 1
 -1 <= W1_231_1 <= 1
 -1 <= W1_232_0 <= 1
 -1 <= W1_232_1 <= 1
 -1 <= W1_233_0 <= 1
 -1 <= W1_233_1 <= 1
 -1 <= W1_234_0 <= 1
 -1 <= W1_234_1 <= 1
 -1 <= W1_235_0 <= 1
 -1 <= W1_235_1 <= 1
 -1 <= W1_236_0 <= 1
 -1 <= W1_236_1 <= 1
 -1 <= W1_237_0 <= 1
 -1 <= W1_237_1 <= 1
 -1 <= W1_238_0 <= 1
 -1 <= W1_238_1 <= 1
 -1 <= W1_239_0 <= 1
 -1 <= W1_239_1 <= 1
 -1 <= W1_240_0 <= 1
 -1 <= W1_240_1 <= 1
 -1 <= W1_241_0 <= 1
 -1 <= W1_241_1 <= 1
 -1 <= W1_242_0 <= 1
 -1 <= W1_242_1 <= 1
 -1 <= W1_243_0 <= 1
 -1 <= W1_243_1 <= 1
 -1 <= W1_244_0 <= 1
 -1 <= W1_244_1 <= 1
 -1 <= W1_245_0 <= 1
 -1 <= W1_245_1 <= 1
 -1 <= W1_246_0 <= 1
 -1 <= W1_246_1 <= 1
 -1 <= W1_247_0 <= 1
 -1 <= W1_247_1 <= 1
 -1 <= W1_248_0 <= 1
 -1 <= W1_248_1 <= 1
 -1 <= W1_249_0 <= 1
 -1 <= W1_249_1 <= 1
 -1 <= W1_250_0 <= 1
 -1 <= W1_250_1 <= 1
 -1 <= W1_251_0 <= 1
 -1 <= W1_251_1 <= 1
 -1 <= W1_252_0 <= 1
 -1 <= W1_252_1 <= 1
 -1 <= W1_253_0 <= 1
 -1 <= W1_253_1 <= 1
 -1 <= W1_254_0 <= 1
 -1 <= W1_254_1 <= 1
 -1 <= W1_255_0 <= 1
 -1 <= W1_255_1 <= 1
 -1 <= W1_256_0 <= 1
 -1 <= W1_256_1 <= 1
 -1 <= W1_257_0 <= 1
 -1 <= W1_257_1 <= 1
 -1 <= W1_258_0 <= 1
 -1 <= W1_258_1 <= 1
 -1 <= W1_259_0 <= 1
 -1 <= W1_259_1 <= 1
 -1 <= W1_260_0 <= 1
 -1 <= W1_260_1 <= 1
 -1 <= W1_261_0 <= 1
 -1 <= W1_261_1 <= 1
 -1 <= W1_262_0 <= 1
 -1 <= W1_262_1 <= 1
 -1 <= W1_263_0 <= 1
 -1 <= W1_263_1 <= 1
 -1 <= W1_264_0 <= 1
 -1 <= W1_264_1 <= 1
 -1 <= W1_265_0 <= 1
 -1 <= W1_265_1 <= 1
 -1 <= W1_266_0 <= 1
 -1 <= W1_266_1 <= 1
 -1 <= W1_267_0 <= 1
 -1 <= W1_267_1 <= 1
 -1 <= W1_268_0 <= 1
 -1 <= W1_268_1 <= 1
 -1 <= W1_269_0 <= 1
 -1 <= W1_269_1 <= 1
 -1 <= W1_270_0 <= 1
 -1 <= W1_270_1 <= 1
 -1 <= W1_271_0 <= 1
 -1 <= W1_271_1 <= 1
 -1 <= W1_272_0 <= 1
 -1 <= W1_272_1 <= 1
 -1 <= W1_273_0 <= 1
 -1 <= W1_273_1 <= 1
 -1 <= W1_274_0 <= 1
 -1 <= W1_274_1 <= 1
 -1 <= W1_275_0 <= 1
 -1 <= W1_275_1 <= 1
 -1 <= W1_276_0 <= 1
 -1 <= W1_276_1 <= 1
 -1 <= W1_277_0 <= 1
 -1 <= W1_277_1 <= 1
 -1 <= W1_278_0 <= 1
 -1 <= W1_278_1 <= 1
 -1 <= W1_279_0 <= 1
 -1 <= W1_279_1 <= 1
 -1 <= W1_280_0 <= 1
 -1 <= W1_280_1 <= 1
 -1 <= W1_281_0 <= 1
 -1 <= W1_281_1 <= 1
 -1 <= W1_282_0 <= 1
 -1 <= W1_282_1 <= 1
 -1 <= W1_283_0 <= 1
 -1 <= W1_283_1 <= 1
 -1 <= W1_284_0 <= 1
 -1 <= W1_284_1 <= 1
 -1 <= W1_285_0 <= 1
 -1 <= W1_285_1 <= 1
 -1 <= W1_286_0 <= 1
 -1 <= W1_286_1 <= 1
 -1 <= W1_287_0 <= 1
 -1 <= W1_287_1 <= 1
 -1 <= W1_288_0 <= 1
 -1 <= W1_288_1 <= 1
 -1 <= W1_289_0 <= 1
 -1 <= W1_289_1 <= 1
 -1 <= W1_290_0 <= 1
 -1 <= W1_290_1 <= 1
 -1 <= W1_291_0 <= 1
 -1 <= W1_291_1 <= 1
 -1 <= W1_292_0 <= 1
 -1 <= W1_292_1 <= 1
 -1 <= W1_293_0 <= 1
 -1 <= W1_293_1 <= 1
 -1 <= W1_294_0 <= 1
 -1 <= W1_294_1 <= 1
 -1 <= W1_295_0 <= 1
 -1 <= W1_295_1 <= 1
 -1 <= W1_296_0 <= 1
 -1 <= W1_296_1 <= 1
 -1 <= W1_297_0 <= 1
 -1 <= W1_297_1 <= 1
 -1 <= W1_298_0 <= 1
 -1 <= W1_298_1 <= 1
 -1 <= W1_299_0 <= 1
 -1 <= W1_299_1 <= 1
 -1 <= W1_300_0 <= 1
 -1 <= W1_300_1 <= 1
 -1 <= W1_301_0 <= 1
 -1 <= W1_301_1 <= 1
 -1 <= W1_302_0 <= 1
 -1 <= W1_302_1 <= 1
 -1 <= W1_303_0 <= 1
 -1 <= W1_303_1 <= 1
 -1 <= W1_304_0 <= 1
 -1 <= W1_304_1 <= 1
 -1 <= W1_305_0 <= 1
 -1 <= W1_305_1 <= 1
 -1 <= W1_306_0 <= 1
 -1 <= W1_306_1 <= 1
 -1 <= W1_307_0 <= 1
 -1 <= W1_307_1 <= 1
 -1 <= W1_308_0 <= 1
 -1 <= W1_308_1 <= 1
 -1 <= W1_309_0 <= 1
 -1 <= W1_309_1 <= 1
 -1 <= W1_310_0 <= 1
 -1 <= W1_310_1 <= 1
 -1 <= W1_311_0 <= 1
 -1 <= W1_311_1 <= 1
 -1 <= W1_312_0 <= 1
 -1 <= W1_312_1 <= 1
 -1 <= W1_313_0 <= 1
 -1 <= W1_313_1 <= 1
 -1 <= W1_314_0 <= 1
 -1 <= W1_314_1 <= 1
 -1 <= W1_315_0 <= 1
 -1 <= W1_315_1 <= 1
 -1 <= W1_316_0 <= 1
 -1 <= W1_316_1 <= 1
 -1 <= W1_317_0 <= 1
 -1 <= W1_317_1 <= 1
 -1 <= W1_318_0 <= 1
 -1 <= W1_318_1 <= 1
 -1 <= W1_319_0 <= 1
 -1 <= W1_319_1 <= 1
 -1 <= W1_320_0 <= 1
 -1 <= W1_320_1 <= 1
 -1 <= W1_321_0 <= 1
 -1 <= W1_321_1 <= 1
 -1 <= W1_322_0 <= 1
 -1 <= W1_322_1 <= 1
 -1 <= W1_323_0 <= 1
 -1 <= W1_323_1 <= 1
 -1 <= W1_324_0 <= 1
 -1 <= W1_324_1 <= 1
 -1 <= W1_325_0 <= 1
 -1 <= W1_325_1 <= 1
 -1 <= W1_326_0 <= 1
 -1 <= W1_326_1 <= 1
 -1 <= W1_327_0 <= 1
 -1 <= W1_327_1 <= 1
 -1 <= W1_328_0 <= 1
 -1 <= W1_328_1 <= 1
 -1 <= W1_329_0 <= 1
 -1 <= W1_329_1 <= 1
 -1 <= W1_330_0 <= 1
 -1 <= W1_330_1 <= 1
 -1 <= W1_331_0 <= 1
 -1 <= W1_331_1 <= 1
 -1 <= W1_332_0 <= 1
 -1 <= W1_332_1 <= 1
 -1 <= W1_333_0 <= 1
 -1 <= W1_333_1 <= 1
 -1 <= W1_334_0 <= 1
 -1 <= W1_334_1 <= 1
 -1 <= W1_335_0 <= 1
 -1 <= W1_335_1 <= 1
 -1 <= W1_336_0 <= 1
 -1 <= W1_336_1 <= 1
 -1 <= W1_337_0 <= 1
 -1 <= W1_337_1 <= 1
 -1 <= W1_338_0 <= 1
 -1 <= W1_338_1 <= 1
 -1 <= W1_339_0 <= 1
 -1 <= W1_339_1 <= 1
 -1 <= W1_340_0 <= 1
 -1 <= W1_340_1 <= 1
 -1 <= W1_341_0 <= 1
 -1 <= W1_341_1 <= 1
 -1 <= W1_342_0 <= 1
 -1 <= W1_342_1 <= 1
 -1 <= W1_343_0 <= 1
 -1 <= W1_343_1 <= 1
 -1 <= W1_344_0 <= 1
 -1 <= W1_344_1 <= 1
 -1 <= W1_345_0 <= 1
 -1 <= W1_345_1 <= 1
 -1 <= W1_346_0 <= 1
 -1 <= W1_346_1 <= 1
 -1 <= W1_347_0 <= 1
 -1 <= W1_347_1 <= 1
 -1 <= W1_348_0 <= 1
 -1 <= W1_348_1 <= 1
 -1 <= W1_349_0 <= 1
 -1 <= W1_349_1 <= 1
 -1 <= W1_350_0 <= 1
 -1 <= W1_350_1 <= 1
 -1 <= W1_351_0 <= 1
 -1 <= W1_351_1 <= 1
 -1 <= W1_352_0 <= 1
 -1 <= W1_352_1 <= 1
 -1 <= W1_353_0 <= 1
 -1 <= W1_353_1 <= 1
 -1 <= W1_354_0 <= 1
 -1 <= W1_354_1 <= 1
 -1 <= W1_355_0 <= 1
 -1 <= W1_355_1 <= 1
 -1 <= W1_356_0 <= 1
 -1 <= W1_356_1 <= 1
 -1 <= W1_357_0 <= 1
 -1 <= W1_357_1 <= 1
 -1 <= W1_358_0 <= 1
 -1 <= W1_358_1 <= 1
 -1 <= W1_359_0 <= 1
 -1 <= W1_359_1 <= 1
 -1 <= W1_360_0 <= 1
 -1 <= W1_360_1 <= 1
 -1 <= W1_361_0 <= 1
 -1 <= W1_361_1 <= 1
 -1 <= W1_362_0 <= 1
 -1 <= W1_362_1 <= 1
 -1 <= W1_363_0 <= 1
 -1 <= W1_363_1 <= 1
 -1 <= W1_364_0 <= 1
 -1 <= W1_364_1 <= 1
 -1 <= W1_365_0 <= 1
 -1 <= W1_365_1 <= 1
 -1 <= W1_366_0 <= 1
 -1 <= W1_366_1 <= 1
 -1 <= W1_367_0 <= 1
 -1 <= W1_367_1 <= 1
 -1 <= W1_368_0 <= 1
 -1 <= W1_368_1 <= 1
 -1 <= W1_369_0 <= 1
 -1 <= W1_369_1 <= 1
 -1 <= W1_370_0 <= 1
 -1 <= W1_370_1 <= 1
 -1 <= W1_371_0 <= 1
 -1 <= W1_371_1 <= 1
 -1 <= W1_372_0 <= 1
 -1 <= W1_372_1 <= 1
 -1 <= W1_373_0 <= 1
 -1 <= W1_373_1 <= 1
 -1 <= W1_374_0 <= 1
 -1 <= W1_374_1 <= 1
 -1 <= W1_375_0 <= 1
 -1 <= W1_375_1 <= 1
 -1 <= W1_376_0 <= 1
 -1 <= W1_376_1 <= 1
 -1 <= W1_377_0 <= 1
 -1 <= W1_377_1 <= 1
 -1 <= W1_378_0 <= 1
 -1 <= W1_378_1 <= 1
 -1 <= W1_379_0 <= 1
 -1 <= W1_379_1 <= 1
 -1 <= W1_380_0 <= 1
 -1 <= W1_380_1 <= 1
 -1 <= W1_381_0 <= 1
 -1 <= W1_381_1 <= 1
 -1 <= W1_382_0 <= 1
 -1 <= W1_382_1 <= 1
 -1 <= W1_383_0 <= 1
 -1 <= W1_383_1 <= 1
 -1 <= W1_384_0 <= 1
 -1 <= W1_384_1 <= 1
 -1 <= W1_385_0 <= 1
 -1 <= W1_385_1 <= 1
 -1 <= W1_386_0 <= 1
 -1 <= W1_386_1 <= 1
 -1 <= W1_387_0 <= 1
 -1 <= W1_387_1 <= 1
 -1 <= W1_388_0 <= 1
 -1 <= W1_388_1 <= 1
 -1 <= W1_389_0 <= 1
 -1 <= W1_389_1 <= 1
 -1 <= W1_390_0 <= 1
 -1 <= W1_390_1 <= 1
 -1 <= W1_391_0 <= 1
 -1 <= W1_391_1 <= 1
 -1 <= W1_392_0 <= 1
 -1 <= W1_392_1 <= 1
 -1 <= W1_393_0 <= 1
 -1 <= W1_393_1 <= 1
 -1 <= W1_394_0 <= 1
 -1 <= W1_394_1 <= 1
 -1 <= W1_395_0 <= 1
 -1 <= W1_395_1 <= 1
 -1 <= W1_396_0 <= 1
 -1 <= W1_396_1 <= 1
 -1 <= W1_397_0 <= 1
 -1 <= W1_397_1 <= 1
 -1 <= W1_398_0 <= 1
 -1 <= W1_398_1 <= 1
 -1 <= W1_399_0 <= 1
 -1 <= W1_399_1 <= 1
 -1 <= W1_400_0 <= 1
 -1 <= W1_400_1 <= 1
 -1 <= W1_401_0 <= 1
 -1 <= W1_401_1 <= 1
 -1 <= W1_402_0 <= 1
 -1 <= W1_402_1 <= 1
 -1 <= W1_403_0 <= 1
 -1 <= W1_403_1 <= 1
 -1 <= W1_404_0 <= 1
 -1 <= W1_404_1 <= 1
 -1 <= W1_405_0 <= 1
 -1 <= W1_405_1 <= 1
 -1 <= W1_406_0 <= 1
 -1 <= W1_406_1 <= 1
 -1 <= W1_407_0 <= 1
 -1 <= W1_407_1 <= 1
 -1 <= W1_408_0 <= 1
 -1 <= W1_408_1 <= 1
 -1 <= W1_409_0 <= 1
 -1 <= W1_409_1 <= 1
 -1 <= W1_410_0 <= 1
 -1 <= W1_410_1 <= 1
 -1 <= W1_411_0 <= 1
 -1 <= W1_411_1 <= 1
 -1 <= W1_412_0 <= 1
 -1 <= W1_412_1 <= 1
 -1 <= W1_413_0 <= 1
 -1 <= W1_413_1 <= 1
 -1 <= W1_414_0 <= 1
 -1 <= W1_414_1 <= 1
 -1 <= W1_415_0 <= 1
 -1 <= W1_415_1 <= 1
 -1 <= W1_416_0 <= 1
 -1 <= W1_416_1 <= 1
 -1 <= W1_417_0 <= 1
 -1 <= W1_417_1 <= 1
 -1 <= W1_418_0 <= 1
 -1 <= W1_418_1 <= 1
 -1 <= W1_419_0 <= 1
 -1 <= W1_419_1 <= 1
 -1 <= W1_420_0 <= 1
 -1 <= W1_420_1 <= 1
 -1 <= W1_421_0 <= 1
 -1 <= W1_421_1 <= 1
 -1 <= W1_422_0 <= 1
 -1 <= W1_422_1 <= 1
 -1 <= W1_423_0 <= 1
 -1 <= W1_423_1 <= 1
 -1 <= W1_424_0 <= 1
 -1 <= W1_424_1 <= 1
 -1 <= W1_425_0 <= 1
 -1 <= W1_425_1 <= 1
 -1 <= W1_426_0 <= 1
 -1 <= W1_426_1 <= 1
 -1 <= W1_427_0 <= 1
 -1 <= W1_427_1 <= 1
 -1 <= W1_428_0 <= 1
 -1 <= W1_428_1 <= 1
 -1 <= W1_429_0 <= 1
 -1 <= W1_429_1 <= 1
 -1 <= W1_430_0 <= 1
 -1 <= W1_430_1 <= 1
 -1 <= W1_431_0 <= 1
 -1 <= W1_431_1 <= 1
 -1 <= W1_432_0 <= 1
 -1 <= W1_432_1 <= 1
 -1 <= W1_433_0 <= 1
 -1 <= W1_433_1 <= 1
 -1 <= W1_434_0 <= 1
 -1 <= W1_434_1 <= 1
 -1 <= W1_435_0 <= 1
 -1 <= W1_435_1 <= 1
 -1 <= W1_436_0 <= 1
 -1 <= W1_436_1 <= 1
 -1 <= W1_437_0 <= 1
 -1 <= W1_437_1 <= 1
 -1 <= W1_438_0 <= 1
 -1 <= W1_438_1 <= 1
 -1 <= W1_439_0 <= 1
 -1 <= W1_439_1 <= 1
 -1 <= W1_440_0 <= 1
 -1 <= W1_440_1 <= 1
 -1 <= W1_441_0 <= 1
 -1 <= W1_441_1 <= 1
 -1 <= W1_442_0 <= 1
 -1 <= W1_442_1 <= 1
 -1 <= W1_443_0 <= 1
 -1 <= W1_443_1 <= 1
 -1 <= W1_444_0 <= 1
 -1 <= W1_444_1 <= 1
 -1 <= W1_445_0 <= 1
 -1 <= W1_445_1 <= 1
 -1 <= W1_446_0 <= 1
 -1 <= W1_446_1 <= 1
 -1 <= W1_447_0 <= 1
 -1 <= W1_447_1 <= 1
 -1 <= W1_448_0 <= 1
 -1 <= W1_448_1 <= 1
 -1 <= W1_449_0 <= 1
 -1 <= W1_449_1 <= 1
 -1 <= W1_450_0 <= 1
 -1 <= W1_450_1 <= 1
 -1 <= W1_451_0 <= 1
 -1 <= W1_451_1 <= 1
 -1 <= W1_452_0 <= 1
 -1 <= W1_452_1 <= 1
 -1 <= W1_453_0 <= 1
 -1 <= W1_453_1 <= 1
 -1 <= W1_454_0 <= 1
 -1 <= W1_454_1 <= 1
 -1 <= W1_455_0 <= 1
 -1 <= W1_455_1 <= 1
 -1 <= W1_456_0 <= 1
 -1 <= W1_456_1 <= 1
 -1 <= W1_457_0 <= 1
 -1 <= W1_457_1 <= 1
 -1 <= W1_458_0 <= 1
 -1 <= W1_458_1 <= 1
 -1 <= W1_459_0 <= 1
 -1 <= W1_459_1 <= 1
 -1 <= W1_460_0 <= 1
 -1 <= W1_460_1 <= 1
 -1 <= W1_461_0 <= 1
 -1 <= W1_461_1 <= 1
 -1 <= W1_462_0 <= 1
 -1 <= W1_462_1 <= 1
 -1 <= W1_463_0 <= 1
 -1 <= W1_463_1 <= 1
 -1 <= W1_464_0 <= 1
 -1 <= W1_464_1 <= 1
 -1 <= W1_465_0 <= 1
 -1 <= W1_465_1 <= 1
 -1 <= W1_466_0 <= 1
 -1 <= W1_466_1 <= 1
 -1 <= W1_467_0 <= 1
 -1 <= W1_467_1 <= 1
 -1 <= W1_468_0 <= 1
 -1 <= W1_468_1 <= 1
 -1 <= W1_469_0 <= 1
 -1 <= W1_469_1 <= 1
 -1 <= W1_470_0 <= 1
 -1 <= W1_470_1 <= 1
 -1 <= W1_471_0 <= 1
 -1 <= W1_471_1 <= 1
 -1 <= W1_472_0 <= 1
 -1 <= W1_472_1 <= 1
 -1 <= W1_473_0 <= 1
 -1 <= W1_473_1 <= 1
 -1 <= W1_474_0 <= 1
 -1 <= W1_474_1 <= 1
 -1 <= W1_475_0 <= 1
 -1 <= W1_475_1 <= 1
 -1 <= W1_476_0 <= 1
 -1 <= W1_476_1 <= 1
 -1 <= W1_477_0 <= 1
 -1 <= W1_477_1 <= 1
 -1 <= W1_478_0 <= 1
 -1 <= W1_478_1 <= 1
 -1 <= W1_479_0 <= 1
 -1 <= W1_479_1 <= 1
 -1 <= W1_480_0 <= 1
 -1 <= W1_480_1 <= 1
 -1 <= W1_481_0 <= 1
 -1 <= W1_481_1 <= 1
 -1 <= W1_482_0 <= 1
 -1 <= W1_482_1 <= 1
 -1 <= W1_483_0 <= 1
 -1 <= W1_483_1 <= 1
 -1 <= W1_484_0 <= 1
 -1 <= W1_484_1 <= 1
 -1 <= W1_485_0 <= 1
 -1 <= W1_485_1 <= 1
 -1 <= W1_486_0 <= 1
 -1 <= W1_486_1 <= 1
 -1 <= W1_487_0 <= 1
 -1 <= W1_487_1 <= 1
 -1 <= W1_488_0 <= 1
 -1 <= W1_488_1 <= 1
 -1 <= W1_489_0 <= 1
 -1 <= W1_489_1 <= 1
 -1 <= W1_490_0 <= 1
 -1 <= W1_490_1 <= 1
 -1 <= W1_491_0 <= 1
 -1 <= W1_491_1 <= 1
 -1 <= W1_492_0 <= 1
 -1 <= W1_492_1 <= 1
 -1 <= W1_493_0 <= 1
 -1 <= W1_493_1 <= 1
 -1 <= W1_494_0 <= 1
 -1 <= W1_494_1 <= 1
 -1 <= W1_495_0 <= 1
 -1 <= W1_495_1 <= 1
 -1 <= W1_496_0 <= 1
 -1 <= W1_496_1 <= 1
 -1 <= W1_497_0 <= 1
 -1 <= W1_497_1 <= 1
 -1 <= W1_498_0 <= 1
 -1 <= W1_498_1 <= 1
 -1 <= W1_499_0 <= 1
 -1 <= W1_499_1 <= 1
 -1 <= W1_500_0 <= 1
 -1 <= W1_500_1 <= 1
 -1 <= W1_501_0 <= 1
 -1 <= W1_501_1 <= 1
 -1 <= W1_502_0 <= 1
 -1 <= W1_502_1 <= 1
 -1 <= W1_503_0 <= 1
 -1 <= W1_503_1 <= 1
 -1 <= W1_504_0 <= 1
 -1 <= W1_504_1 <= 1
 -1 <= W1_505_0 <= 1
 -1 <= W1_505_1 <= 1
 -1 <= W1_506_0 <= 1
 -1 <= W1_506_1 <= 1
 -1 <= W1_507_0 <= 1
 -1 <= W1_507_1 <= 1
 -1 <= W1_508_0 <= 1
 -1 <= W1_508_1 <= 1
 -1 <= W1_509_0 <= 1
 -1 <= W1_509_1 <= 1
 -1 <= W1_510_0 <= 1
 -1 <= W1_510_1 <= 1
 -1 <= W1_511_0 <= 1
 -1 <= W1_511_1 <= 1
 -1 <= W1_512_0 <= 1
 -1 <= W1_512_1 <= 1
 -1 <= W1_513_0 <= 1
 -1 <= W1_513_1 <= 1
 -1 <= W1_514_0 <= 1
 -1 <= W1_514_1 <= 1
 -1 <= W1_515_0 <= 1
 -1 <= W1_515_1 <= 1
 -1 <= W1_516_0 <= 1
 -1 <= W1_516_1 <= 1
 -1 <= W1_517_0 <= 1
 -1 <= W1_517_1 <= 1
 -1 <= W1_518_0 <= 1
 -1 <= W1_518_1 <= 1
 -1 <= W1_519_0 <= 1
 -1 <= W1_519_1 <= 1
 -1 <= W1_520_0 <= 1
 -1 <= W1_520_1 <= 1
 -1 <= W1_521_0 <= 1
 -1 <= W1_521_1 <= 1
 -1 <= W1_522_0 <= 1
 -1 <= W1_522_1 <= 1
 -1 <= W1_523_0 <= 1
 -1 <= W1_523_1 <= 1
 -1 <= W1_524_0 <= 1
 -1 <= W1_524_1 <= 1
 -1 <= W1_525_0 <= 1
 -1 <= W1_525_1 <= 1
 -1 <= W1_526_0 <= 1
 -1 <= W1_526_1 <= 1
 -1 <= W1_527_0 <= 1
 -1 <= W1_527_1 <= 1
 -1 <= W1_528_0 <= 1
 -1 <= W1_528_1 <= 1
 -1 <= W1_529_0 <= 1
 -1 <= W1_529_1 <= 1
 -1 <= W1_530_0 <= 1
 -1 <= W1_530_1 <= 1
 -1 <= W1_531_0 <= 1
 -1 <= W1_531_1 <= 1
 -1 <= W1_532_0 <= 1
 -1 <= W1_532_1 <= 1
 -1 <= W1_533_0 <= 1
 -1 <= W1_533_1 <= 1
 -1 <= W1_534_0 <= 1
 -1 <= W1_534_1 <= 1
 -1 <= W1_535_0 <= 1
 -1 <= W1_535_1 <= 1
 -1 <= W1_536_0 <= 1
 -1 <= W1_536_1 <= 1
 -1 <= W1_537_0 <= 1
 -1 <= W1_537_1 <= 1
 -1 <= W1_538_0 <= 1
 -1 <= W1_538_1 <= 1
 -1 <= W1_539_0 <= 1
 -1 <= W1_539_1 <= 1
 -1 <= W1_540_0 <= 1
 -1 <= W1_540_1 <= 1
 -1 <= W1_541_0 <= 1
 -1 <= W1_541_1 <= 1
 -1 <= W1_542_0 <= 1
 -1 <= W1_542_1 <= 1
 -1 <= W1_543_0 <= 1
 -1 <= W1_543_1 <= 1
 -1 <= W1_544_0 <= 1
 -1 <= W1_544_1 <= 1
 -1 <= W1_545_0 <= 1
 -1 <= W1_545_1 <= 1
 -1 <= W1_546_0 <= 1
 -1 <= W1_546_1 <= 1
 -1 <= W1_547_0 <= 1
 -1 <= W1_547_1 <= 1
 -1 <= W1_548_0 <= 1
 -1 <= W1_548_1 <= 1
 -1 <= W1_549_0 <= 1
 -1 <= W1_549_1 <= 1
 -1 <= W1_550_0 <= 1
 -1 <= W1_550_1 <= 1
 -1 <= W1_551_0 <= 1
 -1 <= W1_551_1 <= 1
 -1 <= W1_552_0 <= 1
 -1 <= W1_552_1 <= 1
 -1 <= W1_553_0 <= 1
 -1 <= W1_553_1 <= 1
 -1 <= W1_554_0 <= 1
 -1 <= W1_554_1 <= 1
 -1 <= W1_555_0 <= 1
 -1 <= W1_555_1 <= 1
 -1 <= W1_556_0 <= 1
 -1 <= W1_556_1 <= 1
 -1 <= W1_557_0 <= 1
 -1 <= W1_557_1 <= 1
 -1 <= W1_558_0 <= 1
 -1 <= W1_558_1 <= 1
 -1 <= W1_559_0 <= 1
 -1 <= W1_559_1 <= 1
 -1 <= W1_560_0 <= 1
 -1 <= W1_560_1 <= 1
 -1 <= W1_561_0 <= 1
 -1 <= W1_561_1 <= 1
 -1 <= W1_562_0 <= 1
 -1 <= W1_562_1 <= 1
 -1 <= W1_563_0 <= 1
 -1 <= W1_563_1 <= 1
 -1 <= W1_564_0 <= 1
 -1 <= W1_564_1 <= 1
 -1 <= W1_565_0 <= 1
 -1 <= W1_565_1 <= 1
 -1 <= W1_566_0 <= 1
 -1 <= W1_566_1 <= 1
 -1 <= W1_567_0 <= 1
 -1 <= W1_567_1 <= 1
 -1 <= W1_568_0 <= 1
 -1 <= W1_568_1 <= 1
 -1 <= W1_569_0 <= 1
 -1 <= W1_569_1 <= 1
 -1 <= W1_570_0 <= 1
 -1 <= W1_570_1 <= 1
 -1 <= W1_571_0 <= 1
 -1 <= W1_571_1 <= 1
 -1 <= W1_572_0 <= 1
 -1 <= W1_572_1 <= 1
 -1 <= W1_573_0 <= 1
 -1 <= W1_573_1 <= 1
 -1 <= W1_574_0 <= 1
 -1 <= W1_574_1 <= 1
 -1 <= W1_575_0 <= 1
 -1 <= W1_575_1 <= 1
 -1 <= W1_576_0 <= 1
 -1 <= W1_576_1 <= 1
 -1 <= W1_577_0 <= 1
 -1 <= W1_577_1 <= 1
 -1 <= W1_578_0 <= 1
 -1 <= W1_578_1 <= 1
 -1 <= W1_579_0 <= 1
 -1 <= W1_579_1 <= 1
 -1 <= W1_580_0 <= 1
 -1 <= W1_580_1 <= 1
 -1 <= W1_581_0 <= 1
 -1 <= W1_581_1 <= 1
 -1 <= W1_582_0 <= 1
 -1 <= W1_582_1 <= 1
 -1 <= W1_583_0 <= 1
 -1 <= W1_583_1 <= 1
 -1 <= W1_584_0 <= 1
 -1 <= W1_584_1 <= 1
 -1 <= W1_585_0 <= 1
 -1 <= W1_585_1 <= 1
 -1 <= W1_586_0 <= 1
 -1 <= W1_586_1 <= 1
 -1 <= W1_587_0 <= 1
 -1 <= W1_587_1 <= 1
 -1 <= W1_588_0 <= 1
 -1 <= W1_588_1 <= 1
 -1 <= W1_589_0 <= 1
 -1 <= W1_589_1 <= 1
 -1 <= W1_590_0 <= 1
 -1 <= W1_590_1 <= 1
 -1 <= W1_591_0 <= 1
 -1 <= W1_591_1 <= 1
 -1 <= W1_592_0 <= 1
 -1 <= W1_592_1 <= 1
 -1 <= W1_593_0 <= 1
 -1 <= W1_593_1 <= 1
 -1 <= W1_594_0 <= 1
 -1 <= W1_594_1 <= 1
 -1 <= W1_595_0 <= 1
 -1 <= W1_595_1 <= 1
 -1 <= W1_596_0 <= 1
 -1 <= W1_596_1 <= 1
 -1 <= W1_597_0 <= 1
 -1 <= W1_597_1 <= 1
 -1 <= W1_598_0 <= 1
 -1 <= W1_598_1 <= 1
 -1 <= W1_599_0 <= 1
 -1 <= W1_599_1 <= 1
 -1 <= W1_600_0 <= 1
 -1 <= W1_600_1 <= 1
 -1 <= W1_601_0 <= 1
 -1 <= W1_601_1 <= 1
 -1 <= W1_602_0 <= 1
 -1 <= W1_602_1 <= 1
 -1 <= W1_603_0 <= 1
 -1 <= W1_603_1 <= 1
 -1 <= W1_604_0 <= 1
 -1 <= W1_604_1 <= 1
 -1 <= W1_605_0 <= 1
 -1 <= W1_605_1 <= 1
 -1 <= W1_606_0 <= 1
 -1 <= W1_606_1 <= 1
 -1 <= W1_607_0 <= 1
 -1 <= W1_607_1 <= 1
 -1 <= W1_608_0 <= 1
 -1 <= W1_608_1 <= 1
 -1 <= W1_609_0 <= 1
 -1 <= W1_609_1 <= 1
 -1 <= W1_610_0 <= 1
 -1 <= W1_610_1 <= 1
 -1 <= W1_611_0 <= 1
 -1 <= W1_611_1 <= 1
 -1 <= W1_612_0 <= 1
 -1 <= W1_612_1 <= 1
 -1 <= W1_613_0 <= 1
 -1 <= W1_613_1 <= 1
 -1 <= W1_614_0 <= 1
 -1 <= W1_614_1 <= 1
 -1 <= W1_615_0 <= 1
 -1 <= W1_615_1 <= 1
 -1 <= W1_616_0 <= 1
 -1 <= W1_616_1 <= 1
 -1 <= W1_617_0 <= 1
 -1 <= W1_617_1 <= 1
 -1 <= W1_618_0 <= 1
 -1 <= W1_618_1 <= 1
 -1 <= W1_619_0 <= 1
 -1 <= W1_619_1 <= 1
 -1 <= W1_620_0 <= 1
 -1 <= W1_620_1 <= 1
 -1 <= W1_621_0 <= 1
 -1 <= W1_621_1 <= 1
 -1 <= W1_622_0 <= 1
 -1 <= W1_622_1 <= 1
 -1 <= W1_623_0 <= 1
 -1 <= W1_623_1 <= 1
 -1 <= W1_624_0 <= 1
 -1 <= W1_624_1 <= 1
 -1 <= W1_625_0 <= 1
 -1 <= W1_625_1 <= 1
 -1 <= W1_626_0 <= 1
 -1 <= W1_626_1 <= 1
 -1 <= W1_627_0 <= 1
 -1 <= W1_627_1 <= 1
 -1 <= W1_628_0 <= 1
 -1 <= W1_628_1 <= 1
 -1 <= W1_629_0 <= 1
 -1 <= W1_629_1 <= 1
 -1 <= W1_630_0 <= 1
 -1 <= W1_630_1 <= 1
 -1 <= W1_631_0 <= 1
 -1 <= W1_631_1 <= 1
 -1 <= W1_632_0 <= 1
 -1 <= W1_632_1 <= 1
 -1 <= W1_633_0 <= 1
 -1 <= W1_633_1 <= 1
 -1 <= W1_634_0 <= 1
 -1 <= W1_634_1 <= 1
 -1 <= W1_635_0 <= 1
 -1 <= W1_635_1 <= 1
 -1 <= W1_636_0 <= 1
 -1 <= W1_636_1 <= 1
 -1 <= W1_637_0 <= 1
 -1 <= W1_637_1 <= 1
 -1 <= W1_638_0 <= 1
 -1 <= W1_638_1 <= 1
 -1 <= W1_639_0 <= 1
 -1 <= W1_639_1 <= 1
 -1 <= W1_640_0 <= 1
 -1 <= W1_640_1 <= 1
 -1 <= W1_641_0 <= 1
 -1 <= W1_641_1 <= 1
 -1 <= W1_642_0 <= 1
 -1 <= W1_642_1 <= 1
 -1 <= W1_643_0 <= 1
 -1 <= W1_643_1 <= 1
 -1 <= W1_644_0 <= 1
 -1 <= W1_644_1 <= 1
 -1 <= W1_645_0 <= 1
 -1 <= W1_645_1 <= 1
 -1 <= W1_646_0 <= 1
 -1 <= W1_646_1 <= 1
 -1 <= W1_647_0 <= 1
 -1 <= W1_647_1 <= 1
 -1 <= W1_648_0 <= 1
 -1 <= W1_648_1 <= 1
 -1 <= W1_649_0 <= 1
 -1 <= W1_649_1 <= 1
 -1 <= W1_650_0 <= 1
 -1 <= W1_650_1 <= 1
 -1 <= W1_651_0 <= 1
 -1 <= W1_651_1 <= 1
 -1 <= W1_652_0 <= 1
 -1 <= W1_652_1 <= 1
 -1 <= W1_653_0 <= 1
 -1 <= W1_653_1 <= 1
 -1 <= W1_654_0 <= 1
 -1 <= W1_654_1 <= 1
 -1 <= W1_655_0 <= 1
 -1 <= W1_655_1 <= 1
 -1 <= W1_656_0 <= 1
 -1 <= W1_656_1 <= 1
 -1 <= W1_657_0 <= 1
 -1 <= W1_657_1 <= 1
 -1 <= W1_658_0 <= 1
 -1 <= W1_658_1 <= 1
 -1 <= W1_659_0 <= 1
 -1 <= W1_659_1 <= 1
 -1 <= W1_660_0 <= 1
 -1 <= W1_660_1 <= 1
 -1 <= W1_661_0 <= 1
 -1 <= W1_661_1 <= 1
 -1 <= W1_662_0 <= 1
 -1 <= W1_662_1 <= 1
 -1 <= W1_663_0 <= 1
 -1 <= W1_663_1 <= 1
 -1 <= W1_664_0 <= 1
 -1 <= W1_664_1 <= 1
 -1 <= W1_665_0 <= 1
 -1 <= W1_665_1 <= 1
 -1 <= W1_666_0 <= 1
 -1 <= W1_666_1 <= 1
 -1 <= W1_667_0 <= 1
 -1 <= W1_667_1 <= 1
 -1 <= W1_668_0 <= 1
 -1 <= W1_668_1 <= 1
 -1 <= W1_669_0 <= 1
 -1 <= W1_669_1 <= 1
 -1 <= W1_670_0 <= 1
 -1 <= W1_670_1 <= 1
 -1 <= W1_671_0 <= 1
 -1 <= W1_671_1 <= 1
 -1 <= W1_672_0 <= 1
 -1 <= W1_672_1 <= 1
 -1 <= W1_673_0 <= 1
 -1 <= W1_673_1 <= 1
 -1 <= W1_674_0 <= 1
 -1 <= W1_674_1 <= 1
 -1 <= W1_675_0 <= 1
 -1 <= W1_675_1 <= 1
 -1 <= W1_676_0 <= 1
 -1 <= W1_676_1 <= 1
 -1 <= W1_677_0 <= 1
 -1 <= W1_677_1 <= 1
 -1 <= W1_678_0 <= 1
 -1 <= W1_678_1 <= 1
 -1 <= W1_679_0 <= 1
 -1 <= W1_679_1 <= 1
 -1 <= W1_680_0 <= 1
 -1 <= W1_680_1 <= 1
 -1 <= W1_681_0 <= 1
 -1 <= W1_681_1 <= 1
 -1 <= W1_682_0 <= 1
 -1 <= W1_682_1 <= 1
 -1 <= W1_683_0 <= 1
 -1 <= W1_683_1 <= 1
 -1 <= W1_684_0 <= 1
 -1 <= W1_684_1 <= 1
 -1 <= W1_685_0 <= 1
 -1 <= W1_685_1 <= 1
 -1 <= W1_686_0 <= 1
 -1 <= W1_686_1 <= 1
 -1 <= W1_687_0 <= 1
 -1 <= W1_687_1 <= 1
 -1 <= W1_688_0 <= 1
 -1 <= W1_688_1 <= 1
 -1 <= W1_689_0 <= 1
 -1 <= W1_689_1 <= 1
 -1 <= W1_690_0 <= 1
 -1 <= W1_690_1 <= 1
 -1 <= W1_691_0 <= 1
 -1 <= W1_691_1 <= 1
 -1 <= W1_692_0 <= 1
 -1 <= W1_692_1 <= 1
 -1 <= W1_693_0 <= 1
 -1 <= W1_693_1 <= 1
 -1 <= W1_694_0 <= 1
 -1 <= W1_694_1 <= 1
 -1 <= W1_695_0 <= 1
 -1 <= W1_695_1 <= 1
 -1 <= W1_696_0 <= 1
 -1 <= W1_696_1 <= 1
 -1 <= W1_697_0 <= 1
 -1 <= W1_697_1 <= 1
 -1 <= W1_698_0 <= 1
 -1 <= W1_698_1 <= 1
 -1 <= W1_699_0 <= 1
 -1 <= W1_699_1 <= 1
 -1 <= W1_700_0 <= 1
 -1 <= W1_700_1 <= 1
 -1 <= W1_701_0 <= 1
 -1 <= W1_701_1 <= 1
 -1 <= W1_702_0 <= 1
 -1 <= W1_702_1 <= 1
 -1 <= W1_703_0 <= 1
 -1 <= W1_703_1 <= 1
 -1 <= W1_704_0 <= 1
 -1 <= W1_704_1 <= 1
 -1 <= W1_705_0 <= 1
 -1 <= W1_705_1 <= 1
 -1 <= W1_706_0 <= 1
 -1 <= W1_706_1 <= 1
 -1 <= W1_707_0 <= 1
 -1 <= W1_707_1 <= 1
 -1 <= W1_708_0 <= 1
 -1 <= W1_708_1 <= 1
 -1 <= W1_709_0 <= 1
 -1 <= W1_709_1 <= 1
 -1 <= W1_710_0 <= 1
 -1 <= W1_710_1 <= 1
 -1 <= W1_711_0 <= 1
 -1 <= W1_711_1 <= 1
 -1 <= W1_712_0 <= 1
 -1 <= W1_712_1 <= 1
 -1 <= W1_713_0 <= 1
 -1 <= W1_713_1 <= 1
 -1 <= W1_714_0 <= 1
 -1 <= W1_714_1 <= 1
 -1 <= W1_715_0 <= 1
 -1 <= W1_715_1 <= 1
 -1 <= W1_716_0 <= 1
 -1 <= W1_716_1 <= 1
 -1 <= W1_717_0 <= 1
 -1 <= W1_717_1 <= 1
 -1 <= W1_718_0 <= 1
 -1 <= W1_718_1 <= 1
 -1 <= W1_719_0 <= 1
 -1 <= W1_719_1 <= 1
 -1 <= W1_720_0 <= 1
 -1 <= W1_720_1 <= 1
 -1 <= W1_721_0 <= 1
 -1 <= W1_721_1 <= 1
 -1 <= W1_722_0 <= 1
 -1 <= W1_722_1 <= 1
 -1 <= W1_723_0 <= 1
 -1 <= W1_723_1 <= 1
 -1 <= W1_724_0 <= 1
 -1 <= W1_724_1 <= 1
 -1 <= W1_725_0 <= 1
 -1 <= W1_725_1 <= 1
 -1 <= W1_726_0 <= 1
 -1 <= W1_726_1 <= 1
 -1 <= W1_727_0 <= 1
 -1 <= W1_727_1 <= 1
 -1 <= W1_728_0 <= 1
 -1 <= W1_728_1 <= 1
 -1 <= W1_729_0 <= 1
 -1 <= W1_729_1 <= 1
 -1 <= W1_730_0 <= 1
 -1 <= W1_730_1 <= 1
 -1 <= W1_731_0 <= 1
 -1 <= W1_731_1 <= 1
 -1 <= W1_732_0 <= 1
 -1 <= W1_732_1 <= 1
 -1 <= W1_733_0 <= 1
 -1 <= W1_733_1 <= 1
 -1 <= W1_734_0 <= 1
 -1 <= W1_734_1 <= 1
 -1 <= W1_735_0 <= 1
 -1 <= W1_735_1 <= 1
 -1 <= W1_736_0 <= 1
 -1 <= W1_736_1 <= 1
 -1 <= W1_737_0 <= 1
 -1 <= W1_737_1 <= 1
 -1 <= W1_738_0 <= 1
 -1 <= W1_738_1 <= 1
 -1 <= W1_739_0 <= 1
 -1 <= W1_739_1 <= 1
 -1 <= W1_740_0 <= 1
 -1 <= W1_740_1 <= 1
 -1 <= W1_741_0 <= 1
 -1 <= W1_741_1 <= 1
 -1 <= W1_742_0 <= 1
 -1 <= W1_742_1 <= 1
 -1 <= W1_743_0 <= 1
 -1 <= W1_743_1 <= 1
 -1 <= W1_744_0 <= 1
 -1 <= W1_744_1 <= 1
 -1 <= W1_745_0 <= 1
 -1 <= W1_745_1 <= 1
 -1 <= W1_746_0 <= 1
 -1 <= W1_746_1 <= 1
 -1 <= W1_747_0 <= 1
 -1 <= W1_747_1 <= 1
 -1 <= W1_748_0 <= 1
 -1 <= W1_748_1 <= 1
 -1 <= W1_749_0 <= 1
 -1 <= W1_749_1 <= 1
 -1 <= W1_750_0 <= 1
 -1 <= W1_750_1 <= 1
 -1 <= W1_751_0 <= 1
 -1 <= W1_751_1 <= 1
 -1 <= W1_752_0 <= 1
 -1 <= W1_752_1 <= 1
 -1 <= W1_753_0 <= 1
 -1 <= W1_753_1 <= 1
 -1 <= W1_754_0 <= 1
 -1 <= W1_754_1 <= 1
 -1 <= W1_755_0 <= 1
 -1 <= W1_755_1 <= 1
 -1 <= W1_756_0 <= 1
 -1 <= W1_756_1 <= 1
 -1 <= W1_757_0 <= 1
 -1 <= W1_757_1 <= 1
 -1 <= W1_758_0 <= 1
 -1 <= W1_758_1 <= 1
 -1 <= W1_759_0 <= 1
 -1 <= W1_759_1 <= 1
 -1 <= W1_760_0 <= 1
 -1 <= W1_760_1 <= 1
 -1 <= W1_761_0 <= 1
 -1 <= W1_761_1 <= 1
 -1 <= W1_762_0 <= 1
 -1 <= W1_762_1 <= 1
 -1 <= W1_763_0 <= 1
 -1 <= W1_763_1 <= 1
 -1 <= W1_764_0 <= 1
 -1 <= W1_764_1 <= 1
 -1 <= W1_765_0 <= 1
 -1 <= W1_765_1 <= 1
 -1 <= W1_766_0 <= 1
 -1 <= W1_766_1 <= 1
 -1 <= W1_767_0 <= 1
 -1 <= W1_767_1 <= 1
 -1 <= W1_768_0 <= 1
 -1 <= W1_768_1 <= 1
 -1 <= W1_769_0 <= 1
 -1 <= W1_769_1 <= 1
 -1 <= W1_770_0 <= 1
 -1 <= W1_770_1 <= 1
 -1 <= W1_771_0 <= 1
 -1 <= W1_771_1 <= 1
 -1 <= W1_772_0 <= 1
 -1 <= W1_772_1 <= 1
 -1 <= W1_773_0 <= 1
 -1 <= W1_773_1 <= 1
 -1 <= W1_774_0 <= 1
 -1 <= W1_774_1 <= 1
 -1 <= W1_775_0 <= 1
 -1 <= W1_775_1 <= 1
 -1 <= W1_776_0 <= 1
 -1 <= W1_776_1 <= 1
 -1 <= W1_777_0 <= 1
 -1 <= W1_777_1 <= 1
 -1 <= W1_778_0 <= 1
 -1 <= W1_778_1 <= 1
 -1 <= W1_779_0 <= 1
 -1 <= W1_779_1 <= 1
 -1 <= W1_780_0 <= 1
 -1 <= W1_780_1 <= 1
 -1 <= W1_781_0 <= 1
 -1 <= W1_781_1 <= 1
 -1 <= W1_782_0 <= 1
 -1 <= W1_782_1 <= 1
 -1 <= W1_783_0 <= 1
 -1 <= W1_783_1 <= 1
 -1 <= W1_784_0 <= 1
 -1 <= W1_784_1 <= 1
 -1 <= W2_0 <= 1
 -1 <= W2_1 <= 1
 -1 <= W2_2 <= 1
 -1 <= g_0_1 <= 1
 -1 <= g_0_2 <= 1
 -1 <= g_1_1 <= 1
 -1 <= g_1_2 <= 1
 -1 <= g_2_1 <= 1
 -1 <= g_2_2 <= 1
 -1 <= g_3_1 <= 1
 -1 <= g_3_2 <= 1
 -1 <= g_4_1 <= 1
 -1 <= g_4_2 <= 1
 -1 <= g_5_1 <= 1
 -1 <= g_5_2 <= 1
 -1 <= g_6_1 <= 1
 -1 <= g_6_2 <= 1
 -1 <= g_7_1 <= 1
 -1 <= g_7_2 <= 1
 -1 <= g_8_1 <= 1
 -1 <= g_8_2 <= 1
 -1 <= g_9_1 <= 1
 -1 <= g_9_2 <= 1
 -1 <= g_10_1 <= 1
 -1 <= g_10_2 <= 1
 -1 <= g_11_1 <= 1
 -1 <= g_11_2 <= 1
 -1 <= g_12_1 <= 1
 -1 <= g_12_2 <= 1
 -1 <= g_13_1 <= 1
 -1 <= g_13_2 <= 1
 -1 <= g_14_1 <= 1
 -1 <= g_14_2 <= 1
 -1 <= g_15_1 <= 1
 -1 <= g_15_2 <= 1
 -1 <= g_16_1 <= 1
 -1 <= g_16_2 <= 1
 -1 <= g_17_1 <= 1
 -1 <= g_17_2 <= 1
 -1 <= g_18_1 <= 1
 -1 <= g_18_2 <= 1
 -1 <= g_19_1 <= 1
 -1 <= g_19_2 <= 1
 -1 <= g_20_1 <= 1
 -1 <= g_20_2 <= 1
 q_0 free
 q_1 free
 q_2 free
 q_3 free
 q_4 free
 q_5 free
 q_6 free
 q_7 free
 q_8 free
 q_9 free
 q_10 free
 q_11 free
 q_12 free
 q_13 free
 q_14 free
 q_15 free
 q_16 free
 q_17 free
 q_18 free
 q_19 free
 q_20 free
Binaries
 abs_W1_0_0 abs_W1_0_1 abs_W1_1_0 abs_W1_1_1 abs_W1_2_0 abs_W1_2_1
 abs_W1_3_0 abs_W1_3_1 abs_W1_4_0 abs_W1_4_1 abs_W1_5_0 abs_W1_5_1
 abs_W1_6_0 abs_W1_6_1 abs_W1_7_0 abs_W1_7_1 abs_W1_8_0 abs_W1_8_1
 abs_W1_9_0 abs_W1_9_1 abs_W1_10_0 abs_W1_10_1 abs_W1_11_0 abs_W1_11_1
 abs_W1_12_0 abs_W1_12_1 abs_W1_13_0 abs_W1_13_1 abs_W1_14_0 abs_W1_14_1
 abs_W1_15_0 abs_W1_15_1 abs_W1_16_0 abs_W1_16_1 abs_W1_17_0 abs_W1_17_1
 abs_W1_18_0 abs_W1_18_1 abs_W1_19_0 abs_W1_19_1 abs_W1_20_0 abs_W1_20_1
 abs_W1_21_0 abs_W1_21_1 abs_W1_22_0 abs_W1_22_1 abs_W1_23_0 abs_W1_23_1
 abs_W1_24_0 abs_W1_24_1 abs_W1_25_0 abs_W1_25_1 abs_W1_26_0 abs_W1_26_1
 abs_W1_27_0 abs_W1_27_1 abs_W1_28_0 abs_W1_28_1 abs_W1_29_0 abs_W1_29_1
 abs_W1_30_0 abs_W1_30_1 abs_W1_31_0 abs_W1_31_1 abs_W1_32_0 abs_W1_32_1
 abs_W1_33_0 abs_W1_33_1 abs_W1_34_0 abs_W1_34_1 abs_W1_35_0 abs_W1_35_1
 abs_W1_36_0 abs_W1_36_1 abs_W1_37_0 abs_W1_37_1 abs_W1_38_0 abs_W1_38_1
 abs_W1_39_0 abs_W1_39_1 abs_W1_40_0 abs_W1_40_1 abs_W1_41_0 abs_W1_41_1
 abs_W1_42_0 abs_W1_42_1 abs_W1_43_0 abs_W1_43_1 abs_W1_44_0 abs_W1_44_1
 abs_W1_45_0 abs_W1_45_1 abs_W1_46_0 abs_W1_46_1 abs_W1_47_0 abs_W1_47_1
 abs_W1_48_0 abs_W1_48_1 abs_W1_49_0 abs_W1_49_1 abs_W1_50_0 abs_W1_50_1
 abs_W1_51_0 abs_W1_51_1 abs_W1_52_0 abs_W1_52_1 abs_W1_53_0 abs_W1_53_1
 abs_W1_54_0 abs_W1_54_1 abs_W1_55_0 abs_W1_55_1 abs_W1_56_0 abs_W1_56_1
 abs_W1_57_0 abs_W1_57_1 abs_W1_58_0 abs_W1_58_1 abs_W1_59_0 abs_W1_59_1
 abs_W1_60_0 abs_W1_60_1 abs_W1_61_0 abs_W1_61_1 abs_W1_62_0 abs_W1_62_1
 abs_W1_63_0 abs_W1_63_1 abs_W1_64_0 abs_W1_64_1 abs_W1_65_0 abs_W1_65_1
 abs_W1_66_0 abs_W1_66_1 abs_W1_67_0 abs_W1_67_1 abs_W1_68_0 abs_W1_68_1
 abs_W1_69_0 abs_W1_69_1 abs_W1_70_0 abs_W1_70_1 abs_W1_71_0 abs_W1_71_1
 abs_W1_72_0 abs_W1_72_1 abs_W1_73_0 abs_W1_73_1 abs_W1_74_0 abs_W1_74_1
 abs_W1_75_0 abs_W1_75_1 abs_W1_76_0 abs_W1_76_1 abs_W1_77_0 abs_W1_77_1
 abs_W1_78_0 abs_W1_78_1 abs_W1_79_0 abs_W1_79_1 abs_W1_80_0 abs_W1_80_1
 abs_W1_81_0 abs_W1_81_1 abs_W1_82_0 abs_W1_82_1 abs_W1_83_0 abs_W1_83_1
 abs_W1_84_0 abs_W1_84_1 abs_W1_85_0 abs_W1_85_1 abs_W1_86_0 abs_W1_86_1
 abs_W1_87_0 abs_W1_87_1 abs_W1_88_0 abs_W1_88_1 abs_W1_89_0 abs_W1_89_1
 abs_W1_90_0 abs_W1_90_1 abs_W1_91_0 abs_W1_91_1 abs_W1_92_0 abs_W1_92_1
 abs_W1_93_0 abs_W1_93_1 abs_W1_94_0 abs_W1_94_1 abs_W1_95_0 abs_W1_95_1
 abs_W1_96_0 abs_W1_96_1 abs_W1_97_0 abs_W1_97_1 abs_W1_98_0 abs_W1_98_1
 abs_W1_99_0 abs_W1_99_1 abs_W1_100_0 abs_W1_100_1 abs_W1_101_0
 abs_W1_101_1 abs_W1_102_0 abs_W1_102_1 abs_W1_103_0 abs_W1_103_1
 abs_W1_104_0 abs_W1_104_1 abs_W1_105_0 abs_W1_105_1 abs_W1_106_0
 abs_W1_106_1 abs_W1_107_0 abs_W1_107_1 abs_W1_108_0 abs_W1_108_1
 abs_W1_109_0 abs_W1_109_1 abs_W1_110_0 abs_W1_110_1 abs_W1_111_0
 abs_W1_111_1 abs_W1_112_0 abs_W1_112_1 abs_W1_113_0 abs_W1_113_1
 abs_W1_114_0 abs_W1_114_1 abs_W1_115_0 abs_W1_115_1 abs_W1_116_0
 abs_W1_116_1 abs_W1_117_0 abs_W1_117_1 abs_W1_118_0 abs_W1_118_1
 abs_W1_119_0 abs_W1_119_1 abs_W1_120_0 abs_W1_120_1 abs_W1_121_0
 abs_W1_121_1 abs_W1_122_0 abs_W1_122_1 abs_W1_123_0 abs_W1_123_1
 abs_W1_124_0 abs_W1_124_1 abs_W1_125_0 abs_W1_125_1 abs_W1_126_0
 abs_W1_126_1 abs_W1_127_0 abs_W1_127_1 abs_W1_128_0 abs_W1_128_1
 abs_W1_129_0 abs_W1_129_1 abs_W1_130_0 abs_W1_130_1 abs_W1_131_0
 abs_W1_131_1 abs_W1_132_0 abs_W1_132_1 abs_W1_133_0 abs_W1_133_1
 abs_W1_134_0 abs_W1_134_1 abs_W1_135_0 abs_W1_135_1 abs_W1_136_0
 abs_W1_136_1 abs_W1_137_0 abs_W1_137_1 abs_W1_138_0 abs_W1_138_1
 abs_W1_139_0 abs_W1_139_1 abs_W1_140_0 abs_W1_140_1 abs_W1_141_0
 abs_W1_141_1 abs_W1_142_0 abs_W1_142_1 abs_W1_143_0 abs_W1_143_1
 abs_W1_144_0 abs_W1_144_1 abs_W1_145_0 abs_W1_145_1 abs_W1_146_0
 abs_W1_146_1 abs_W1_147_0 abs_W1_147_1 abs_W1_148_0 abs_W1_148_1
 abs_W1_149_0 abs_W1_149_1 abs_W1_150_0 abs_W1_150_1 abs_W1_151_0
 abs_W1_151_1 abs_W1_152_0 abs_W1_152_1 abs_W1_153_0 abs_W1_153_1
 abs_W1_154_0 abs_W1_154_1 abs_W1_155_0 abs_W1_155_1 abs_W1_156_0
 abs_W1_156_1 abs_W1_157_0 abs_W1_157_1 abs_W1_158_0 abs_W1_158_1
 abs_W1_159_0 abs_W1_159_1 abs_W1_160_0 abs_W1_160_1 abs_W1_161_0
 abs_W1_161_1 abs_W1_162_0 abs_W1_162_1 abs_W1_163_0 abs_W1_163_1
 abs_W1_164_0 abs_W1_164_1 abs_W1_165_0 abs_W1_165_1 abs_W1_166_0
 abs_W1_166_1 abs_W1_167_0 abs_W1_167_1 abs_W1_168_0 abs_W1_168_1
 abs_W1_169_0 abs_W1_169_1 abs_W1_170_0 abs_W1_170_1 abs_W1_171_0
 abs_W1_171_1 abs_W1_172_0 abs_W1_172_1 abs_W1_173_0 abs_W1_173_1
 abs_W1_174_0 abs_W1_174_1 abs_W1_175_0 abs_W1_175_1 abs_W1_176_0
 abs_W1_176_1 abs_W1_177_0 abs_W1_177_1 abs_W1_178_0 abs_W1_178_1
 abs_W1_179_0 abs_W1_179_1 abs_W1_180_0 abs_W1_180_1 abs_W1_181_0
 abs_W1_181_1 abs_W1_182_0 abs_W1_182_1 abs_W1_183_0 abs_W1_183_1
 abs_W1_184_0 abs_W1_184_1 abs_W1_185_0 abs_W1_185_1 abs_W1_186_0
 abs_W1_186_1 abs_W1_187_0 abs_W1_187_1 abs_W1_188_0 abs_W1_188_1
 abs_W1_189_0 abs_W1_189_1 abs_W1_190_0 abs_W1_190_1 abs_W1_191_0
 abs_W1_191_1 abs_W1_192_0 abs_W1_192_1 abs_W1_193_0 abs_W1_193_1
 abs_W1_194_0 abs_W1_194_1 abs_W1_195_0 abs_W1_195_1 abs_W1_196_0
 abs_W1_196_1 abs_W1_197_0 abs_W1_197_1 abs_W1_198_0 abs_W1_198_1
 abs_W1_199_0 abs_W1_199_1 abs_W1_200_0 abs_W1_200_1 abs_W1_201_0
 abs_W1_201_1 abs_W1_202_0 abs_W1_202_1 abs_W1_203_0 abs_W1_203_1
 abs_W1_204_0 abs_W1_204_1 abs_W1_205_0 abs_W1_205_1 abs_W1_206_0
 abs_W1_206_1 abs_W1_207_0 abs_W1_207_1 abs_W1_208_0 abs_W1_208_1
 abs_W1_209_0 abs_W1_209_1 abs_W1_210_0 abs_W1_210_1 abs_W1_211_0
 abs_W1_211_1 abs_W1_212_0 abs_W1_212_1 abs_W1_213_0 abs_W1_213_1
 abs_W1_214_0 abs_W1_214_1 abs_W1_215_0 abs_W1_215_1 abs_W1_216_0
 abs_W1_216_1 abs_W1_217_0 abs_W1_217_1 abs_W1_218_0 abs_W1_218_1
 abs_W1_219_0 abs_W1_219_1 abs_W1_220_0 abs_W1_220_1 abs_W1_221_0
 abs_W1_221_1 abs_W1_222_0 abs_W1_222_1 abs_W1_223_0 abs_W1_223_1
 abs_W1_224_0 abs_W1_224_1 abs_W1_225_0 abs_W1_225_1 abs_W1_226_0
 abs_W1_226_1 abs_W1_227_0 abs_W1_227_1 abs_W1_228_0 abs_W1_228_1
 abs_W1_229_0 abs_W1_229_1 abs_W1_230_0 abs_W1_230_1 abs_W1_231_0
 abs_W1_231_1 abs_W1_232_0 abs_W1_232_1 abs_W1_233_0 abs_W1_233_1
 abs_W1_234_0 abs_W1_234_1 abs_W1_235_0 abs_W1_235_1 abs_W1_236_0
 abs_W1_236_1 abs_W1_237_0 abs_W1_237_1 abs_W1_238_0 abs_W1_238_1
 abs_W1_239_0 abs_W1_239_1 abs_W1_240_0 abs_W1_240_1 abs_W1_241_0
 abs_W1_241_1 abs_W1_242_0 abs_W1_242_1 abs_W1_243_0 abs_W1_243_1
 abs_W1_244_0 abs_W1_244_1 abs_W1_245_0 abs_W1_245_1 abs_W1_246_0
 abs_W1_246_1 abs_W1_247_0 abs_W1_247_1 abs_W1_248_0 abs_W1_248_1
 abs_W1_249_0 abs_W1_249_1 abs_W1_250_0 abs_W1_250_1 abs_W1_251_0
 abs_W1_251_1 abs_W1_252_0 abs_W1_252_1 abs_W1_253_0 abs_W1_253_1
 abs_W1_254_0 abs_W1_254_1 abs_W1_255_0 abs_W1_255_1 abs_W1_256_0
 abs_W1_256_1 abs_W1_257_0 abs_W1_257_1 abs_W1_258_0 abs_W1_258_1
 abs_W1_259_0 abs_W1_259_1 abs_W1_260_0 abs_W1_260_1 abs_W1_261_0
 abs_W1_261_1 abs_W1_262_0 abs_W1_262_1 abs_W1_263_0 abs_W1_263_1
 abs_W1_264_0 abs_W1_264_1 abs_W1_265_0 abs_W1_265_1 abs_W1_266_0
 abs_W1_266_1 abs_W1_267_0 abs_W1_267_1 abs_W1_268_0 abs_W1_268_1
 abs_W1_269_0 abs_W1_269_1 abs_W1_270_0 abs_W1_270_1 abs_W1_271_0
 abs_W1_271_1 abs_W1_272_0 abs_W1_272_1 abs_W1_273_0 abs_W1_273_1
 abs_W1_274_0 abs_W1_274_1 abs_W1_275_0 abs_W1_275_1 abs_W1_276_0
 abs_W1_276_1 abs_W1_277_0 abs_W1_277_1 abs_W1_278_0 abs_W1_278_1
 abs_W1_279_0 abs_W1_279_1 abs_W1_280_0 abs_W1_280_1 abs_W1_281_0
 abs_W1_281_1 abs_W1_282_0 abs_W1_282_1 abs_W1_283_0 abs_W1_283_1
 abs_W1_284_0 abs_W1_284_1 abs_W1_285_0 abs_W1_285_1 abs_W1_286_0
 abs_W1_286_1 abs_W1_287_0 abs_W1_287_1 abs_W1_288_0 abs_W1_288_1
 abs_W1_289_0 abs_W1_289_1 abs_W1_290_0 abs_W1_290_1 abs_W1_291_0
 abs_W1_291_1 abs_W1_292_0 abs_W1_292_1 abs_W1_293_0 abs_W1_293_1
 abs_W1_294_0 abs_W1_294_1 abs_W1_295_0 abs_W1_295_1 abs_W1_296_0
 abs_W1_296_1 abs_W1_297_0 abs_W1_297_1 abs_W1_298_0 abs_W1_298_1
 abs_W1_299_0 abs_W1_299_1 abs_W1_300_0 abs_W1_300_1 abs_W1_301_0
 abs_W1_301_1 abs_W1_302_0 abs_W1_302_1 abs_W1_303_0 abs_W1_303_1
 abs_W1_304_0 abs_W1_304_1 abs_W1_305_0 abs_W1_305_1 abs_W1_306_0
 abs_W1_306_1 abs_W1_307_0 abs_W1_307_1 abs_W1_308_0 abs_W1_308_1
 abs_W1_309_0 abs_W1_309_1 abs_W1_310_0 abs_W1_310_1 abs_W1_311_0
 abs_W1_311_1 abs_W1_312_0 abs_W1_312_1 abs_W1_313_0 abs_W1_313_1
 abs_W1_314_0 abs_W1_314_1 abs_W1_315_0 abs_W1_315_1 abs_W1_316_0
 abs_W1_316_1 abs_W1_317_0 abs_W1_317_1 abs_W1_318_0 abs_W1_318_1
 abs_W1_319_0 abs_W1_319_1 abs_W1_320_0 abs_W1_320_1 abs_W1_321_0
 abs_W1_321_1 abs_W1_322_0 abs_W1_322_1 abs_W1_323_0 abs_W1_323_1
 abs_W1_324_0 abs_W1_324_1 abs_W1_325_0 abs_W1_325_1 abs_W1_326_0
 abs_W1_326_1 abs_W1_327_0 abs_W1_327_1 abs_W1_328_0 abs_W1_328_1
 abs_W1_329_0 abs_W1_329_1 abs_W1_330_0 abs_W1_330_1 abs_W1_331_0
 abs_W1_331_1 abs_W1_332_0 abs_W1_332_1 abs_W1_333_0 abs_W1_333_1
 abs_W1_334_0 abs_W1_334_1 abs_W1_335_0 abs_W1_335_1 abs_W1_336_0
 abs_W1_336_1 abs_W1_337_0 abs_W1_337_1 abs_W1_338_0 abs_W1_338_1
 abs_W1_339_0 abs_W1_339_1 abs_W1_340_0 abs_W1_340_1 abs_W1_341_0
 abs_W1_341_1 abs_W1_342_0 abs_W1_342_1 abs_W1_343_0 abs_W1_343_1
 abs_W1_344_0 abs_W1_344_1 abs_W1_345_0 abs_W1_345_1 abs_W1_346_0
 abs_W1_346_1 abs_W1_347_0 abs_W1_347_1 abs_W1_348_0 abs_W1_348_1
 abs_W1_349_0 abs_W1_349_1 abs_W1_350_0 abs_W1_350_1 abs_W1_351_0
 abs_W1_351_1 abs_W1_352_0 abs_W1_352_1 abs_W1_353_0 abs_W1_353_1
 abs_W1_354_0 abs_W1_354_1 abs_W1_355_0 abs_W1_355_1 abs_W1_356_0
 abs_W1_356_1 abs_W1_357_0 abs_W1_357_1 abs_W1_358_0 abs_W1_358_1
 abs_W1_359_0 abs_W1_359_1 abs_W1_360_0 abs_W1_360_1 abs_W1_361_0
 abs_W1_361_1 abs_W1_362_0 abs_W1_362_1 abs_W1_363_0 abs_W1_363_1
 abs_W1_364_0 abs_W1_364_1 abs_W1_365_0 abs_W1_365_1 abs_W1_366_0
 abs_W1_366_1 abs_W1_367_0 abs_W1_367_1 abs_W1_368_0 abs_W1_368_1
 abs_W1_369_0 abs_W1_369_1 abs_W1_370_0 abs_W1_370_1 abs_W1_371_0
 abs_W1_371_1 abs_W1_372_0 abs_W1_372_1 abs_W1_373_0 abs_W1_373_1
 abs_W1_374_0 abs_W1_374_1 abs_W1_375_0 abs_W1_375_1 abs_W1_376_0
 abs_W1_376_1 abs_W1_377_0 abs_W1_377_1 abs_W1_378_0 abs_W1_378_1
 abs_W1_379_0 abs_W1_379_1 abs_W1_380_0 abs_W1_380_1 abs_W1_381_0
 abs_W1_381_1 abs_W1_382_0 abs_W1_382_1 abs_W1_383_0 abs_W1_383_1
 abs_W1_384_0 abs_W1_384_1 abs_W1_385_0 abs_W1_385_1 abs_W1_386_0
 abs_W1_386_1 abs_W1_387_0 abs_W1_387_1 abs_W1_388_0 abs_W1_388_1
 abs_W1_389_0 abs_W1_389_1 abs_W1_390_0 abs_W1_390_1 abs_W1_391_0
 abs_W1_391_1 abs_W1_392_0 abs_W1_392_1 abs_W1_393_0 abs_W1_393_1
 abs_W1_394_0 abs_W1_394_1 abs_W1_395_0 abs_W1_395_1 abs_W1_396_0
 abs_W1_396_1 abs_W1_397_0 abs_W1_397_1 abs_W1_398_0 abs_W1_398_1
 abs_W1_399_0 abs_W1_399_1 abs_W1_400_0 abs_W1_400_1 abs_W1_401_0
 abs_W1_401_1 abs_W1_402_0 abs_W1_402_1 abs_W1_403_0 abs_W1_403_1
 abs_W1_404_0 abs_W1_404_1 abs_W1_405_0 abs_W1_405_1 abs_W1_406_0
 abs_W1_406_1 abs_W1_407_0 abs_W1_407_1 abs_W1_408_0 abs_W1_408_1
 abs_W1_409_0 abs_W1_409_1 abs_W1_410_0 abs_W1_410_1 abs_W1_411_0
 abs_W1_411_1 abs_W1_412_0 abs_W1_412_1 abs_W1_413_0 abs_W1_413_1
 abs_W1_414_0 abs_W1_414_1 abs_W1_415_0 abs_W1_415_1 abs_W1_416_0
 abs_W1_416_1 abs_W1_417_0 abs_W1_417_1 abs_W1_418_0 abs_W1_418_1
 abs_W1_419_0 abs_W1_419_1 abs_W1_420_0 abs_W1_420_1 abs_W1_421_0
 abs_W1_421_1 abs_W1_422_0 abs_W1_422_1 abs_W1_423_0 abs_W1_423_1
 abs_W1_424_0 abs_W1_424_1 abs_W1_425_0 abs_W1_425_1 abs_W1_426_0
 abs_W1_426_1 abs_W1_427_0 abs_W1_427_1 abs_W1_428_0 abs_W1_428_1
 abs_W1_429_0 abs_W1_429_1 abs_W1_430_0 abs_W1_430_1 abs_W1_431_0
 abs_W1_431_1 abs_W1_432_0 abs_W1_432_1 abs_W1_433_0 abs_W1_433_1
 abs_W1_434_0 abs_W1_434_1 abs_W1_435_0 abs_W1_435_1 abs_W1_436_0
 abs_W1_436_1 abs_W1_437_0 abs_W1_437_1 abs_W1_438_0 abs_W1_438_1
 abs_W1_439_0 abs_W1_439_1 abs_W1_440_0 abs_W1_440_1 abs_W1_441_0
 abs_W1_441_1 abs_W1_442_0 abs_W1_442_1 abs_W1_443_0 abs_W1_443_1
 abs_W1_444_0 abs_W1_444_1 abs_W1_445_0 abs_W1_445_1 abs_W1_446_0
 abs_W1_446_1 abs_W1_447_0 abs_W1_447_1 abs_W1_448_0 abs_W1_448_1
 abs_W1_449_0 abs_W1_449_1 abs_W1_450_0 abs_W1_450_1 abs_W1_451_0
 abs_W1_451_1 abs_W1_452_0 abs_W1_452_1 abs_W1_453_0 abs_W1_453_1
 abs_W1_454_0 abs_W1_454_1 abs_W1_455_0 abs_W1_455_1 abs_W1_456_0
 abs_W1_456_1 abs_W1_457_0 abs_W1_457_1 abs_W1_458_0 abs_W1_458_1
 abs_W1_459_0 abs_W1_459_1 abs_W1_460_0 abs_W1_460_1 abs_W1_461_0
 abs_W1_461_1 abs_W1_462_0 abs_W1_462_1 abs_W1_463_0 abs_W1_463_1
 abs_W1_464_0 abs_W1_464_1 abs_W1_465_0 abs_W1_465_1 abs_W1_466_0
 abs_W1_466_1 abs_W1_467_0 abs_W1_467_1 abs_W1_468_0 abs_W1_468_1
 abs_W1_469_0 abs_W1_469_1 abs_W1_470_0 abs_W1_470_1 abs_W1_471_0
 abs_W1_471_1 abs_W1_472_0 abs_W1_472_1 abs_W1_473_0 abs_W1_473_1
 abs_W1_474_0 abs_W1_474_1 abs_W1_475_0 abs_W1_475_1 abs_W1_476_0
 abs_W1_476_1 abs_W1_477_0 abs_W1_477_1 abs_W1_478_0 abs_W1_478_1
 abs_W1_479_0 abs_W1_479_1 abs_W1_480_0 abs_W1_480_1 abs_W1_481_0
 abs_W1_481_1 abs_W1_482_0 abs_W1_482_1 abs_W1_483_0 abs_W1_483_1
 abs_W1_484_0 abs_W1_484_1 abs_W1_485_0 abs_W1_485_1 abs_W1_486_0
 abs_W1_486_1 abs_W1_487_0 abs_W1_487_1 abs_W1_488_0 abs_W1_488_1
 abs_W1_489_0 abs_W1_489_1 abs_W1_490_0 abs_W1_490_1 abs_W1_491_0
 abs_W1_491_1 abs_W1_492_0 abs_W1_492_1 abs_W1_493_0 abs_W1_493_1
 abs_W1_494_0 abs_W1_494_1 abs_W1_495_0 abs_W1_495_1 abs_W1_496_0
 abs_W1_496_1 abs_W1_497_0 abs_W1_497_1 abs_W1_498_0 abs_W1_498_1
 abs_W1_499_0 abs_W1_499_1 abs_W1_500_0 abs_W1_500_1 abs_W1_501_0
 abs_W1_501_1 abs_W1_502_0 abs_W1_502_1 abs_W1_503_0 abs_W1_503_1
 abs_W1_504_0 abs_W1_504_1 abs_W1_505_0 abs_W1_505_1 abs_W1_506_0
 abs_W1_506_1 abs_W1_507_0 abs_W1_507_1 abs_W1_508_0 abs_W1_508_1
 abs_W1_509_0 abs_W1_509_1 abs_W1_510_0 abs_W1_510_1 abs_W1_511_0
 abs_W1_511_1 abs_W1_512_0 abs_W1_512_1 abs_W1_513_0 abs_W1_513_1
 abs_W1_514_0 abs_W1_514_1 abs_W1_515_0 abs_W1_515_1 abs_W1_516_0
 abs_W1_516_1 abs_W1_517_0 abs_W1_517_1 abs_W1_518_0 abs_W1_518_1
 abs_W1_519_0 abs_W1_519_1 abs_W1_520_0 abs_W1_520_1 abs_W1_521_0
 abs_W1_521_1 abs_W1_522_0 abs_W1_522_1 abs_W1_523_0 abs_W1_523_1
 abs_W1_524_0 abs_W1_524_1 abs_W1_525_0 abs_W1_525_1 abs_W1_526_0
 abs_W1_526_1 abs_W1_527_0 abs_W1_527_1 abs_W1_528_0 abs_W1_528_1
 abs_W1_529_0 abs_W1_529_1 abs_W1_530_0 abs_W1_530_1 abs_W1_531_0
 abs_W1_531_1 abs_W1_532_0 abs_W1_532_1 abs_W1_533_0 abs_W1_533_1
 abs_W1_534_0 abs_W1_534_1 abs_W1_535_0 abs_W1_535_1 abs_W1_536_0
 abs_W1_536_1 abs_W1_537_0 abs_W1_537_1 abs_W1_538_0 abs_W1_538_1
 abs_W1_539_0 abs_W1_539_1 abs_W1_540_0 abs_W1_540_1 abs_W1_541_0
 abs_W1_541_1 abs_W1_542_0 abs_W1_542_1 abs_W1_543_0 abs_W1_543_1
 abs_W1_544_0 abs_W1_544_1 abs_W1_545_0 abs_W1_545_1 abs_W1_546_0
 abs_W1_546_1 abs_W1_547_0 abs_W1_547_1 abs_W1_548_0 abs_W1_548_1
 abs_W1_549_0 abs_W1_549_1 abs_W1_550_0 abs_W1_550_1 abs_W1_551_0
 abs_W1_551_1 abs_W1_552_0 abs_W1_552_1 abs_W1_553_0 abs_W1_553_1
 abs_W1_554_0 abs_W1_554_1 abs_W1_555_0 abs_W1_555_1 abs_W1_556_0
 abs_W1_556_1 abs_W1_557_0 abs_W1_557_1 abs_W1_558_0 abs_W1_558_1
 abs_W1_559_0 abs_W1_559_1 abs_W1_560_0 abs_W1_560_1 abs_W1_561_0
 abs_W1_561_1 abs_W1_562_0 abs_W1_562_1 abs_W1_563_0 abs_W1_563_1
 abs_W1_564_0 abs_W1_564_1 abs_W1_565_0 abs_W1_565_1 abs_W1_566_0
 abs_W1_566_1 abs_W1_567_0 abs_W1_567_1 abs_W1_568_0 abs_W1_568_1
 abs_W1_569_0 abs_W1_569_1 abs_W1_570_0 abs_W1_570_1 abs_W1_571_0
 abs_W1_571_1 abs_W1_572_0 abs_W1_572_1 abs_W1_573_0 abs_W1_573_1
 abs_W1_574_0 abs_W1_574_1 abs_W1_575_0 abs_W1_575_1 abs_W1_576_0
 abs_W1_576_1 abs_W1_577_0 abs_W1_577_1 abs_W1_578_0 abs_W1_578_1
 abs_W1_579_0 abs_W1_579_1 abs_W1_580_0 abs_W1_580_1 abs_W1_581_0
 abs_W1_581_1 abs_W1_582_0 abs_W1_582_1 abs_W1_583_0 abs_W1_583_1
 abs_W1_584_0 abs_W1_584_1 abs_W1_585_0 abs_W1_585_1 abs_W1_586_0
 abs_W1_586_1 abs_W1_587_0 abs_W1_587_1 abs_W1_588_0 abs_W1_588_1
 abs_W1_589_0 abs_W1_589_1 abs_W1_590_0 abs_W1_590_1 abs_W1_591_0
 abs_W1_591_1 abs_W1_592_0 abs_W1_592_1 abs_W1_593_0 abs_W1_593_1
 abs_W1_594_0 abs_W1_594_1 abs_W1_595_0 abs_W1_595_1 abs_W1_596_0
 abs_W1_596_1 abs_W1_597_0 abs_W1_597_1 abs_W1_598_0 abs_W1_598_1
 abs_W1_599_0 abs_W1_599_1 abs_W1_600_0 abs_W1_600_1 abs_W1_601_0
 abs_W1_601_1 abs_W1_602_0 abs_W1_602_1 abs_W1_603_0 abs_W1_603_1
 abs_W1_604_0 abs_W1_604_1 abs_W1_605_0 abs_W1_605_1 abs_W1_606_0
 abs_W1_606_1 abs_W1_607_0 abs_W1_607_1 abs_W1_608_0 abs_W1_608_1
 abs_W1_609_0 abs_W1_609_1 abs_W1_610_0 abs_W1_610_1 abs_W1_611_0
 abs_W1_611_1 abs_W1_612_0 abs_W1_612_1 abs_W1_613_0 abs_W1_613_1
 abs_W1_614_0 abs_W1_614_1 abs_W1_615_0 abs_W1_615_1 abs_W1_616_0
 abs_W1_616_1 abs_W1_617_0 abs_W1_617_1 abs_W1_618_0 abs_W1_618_1
 abs_W1_619_0 abs_W1_619_1 abs_W1_620_0 abs_W1_620_1 abs_W1_621_0
 abs_W1_621_1 abs_W1_622_0 abs_W1_622_1 abs_W1_623_0 abs_W1_623_1
 abs_W1_624_0 abs_W1_624_1 abs_W1_625_0 abs_W1_625_1 abs_W1_626_0
 abs_W1_626_1 abs_W1_627_0 abs_W1_627_1 abs_W1_628_0 abs_W1_628_1
 abs_W1_629_0 abs_W1_629_1 abs_W1_630_0 abs_W1_630_1 abs_W1_631_0
 abs_W1_631_1 abs_W1_632_0 abs_W1_632_1 abs_W1_633_0 abs_W1_633_1
 abs_W1_634_0 abs_W1_634_1 abs_W1_635_0 abs_W1_635_1 abs_W1_636_0
 abs_W1_636_1 abs_W1_637_0 abs_W1_637_1 abs_W1_638_0 abs_W1_638_1
 abs_W1_639_0 abs_W1_639_1 abs_W1_640_0 abs_W1_640_1 abs_W1_641_0
 abs_W1_641_1 abs_W1_642_0 abs_W1_642_1 abs_W1_643_0 abs_W1_643_1
 abs_W1_644_0 abs_W1_644_1 abs_W1_645_0 abs_W1_645_1 abs_W1_646_0
 abs_W1_646_1 abs_W1_647_0 abs_W1_647_1 abs_W1_648_0 abs_W1_648_1
 abs_W1_649_0 abs_W1_649_1 abs_W1_650_0 abs_W1_650_1 abs_W1_651_0
 abs_W1_651_1 abs_W1_652_0 abs_W1_652_1 abs_W1_653_0 abs_W1_653_1
 abs_W1_654_0 abs_W1_654_1 abs_W1_655_0 abs_W1_655_1 abs_W1_656_0
 abs_W1_656_1 abs_W1_657_0 abs_W1_657_1 abs_W1_658_0 abs_W1_658_1
 abs_W1_659_0 abs_W1_659_1 abs_W1_660_0 abs_W1_660_1 abs_W1_661_0
 abs_W1_661_1 abs_W1_662_0 abs_W1_662_1 abs_W1_663_0 abs_W1_663_1
 abs_W1_664_0 abs_W1_664_1 abs_W1_665_0 abs_W1_665_1 abs_W1_666_0
 abs_W1_666_1 abs_W1_667_0 abs_W1_667_1 abs_W1_668_0 abs_W1_668_1
 abs_W1_669_0 abs_W1_669_1 abs_W1_670_0 abs_W1_670_1 abs_W1_671_0
 abs_W1_671_1 abs_W1_672_0 abs_W1_672_1 abs_W1_673_0 abs_W1_673_1
 abs_W1_674_0 abs_W1_674_1 abs_W1_675_0 abs_W1_675_1 abs_W1_676_0
 abs_W1_676_1 abs_W1_677_0 abs_W1_677_1 abs_W1_678_0 abs_W1_678_1
 abs_W1_679_0 abs_W1_679_1 abs_W1_680_0 abs_W1_680_1 abs_W1_681_0
 abs_W1_681_1 abs_W1_682_0 abs_W1_682_1 abs_W1_683_0 abs_W1_683_1
 abs_W1_684_0 abs_W1_684_1 abs_W1_685_0 abs_W1_685_1 abs_W1_686_0
 abs_W1_686_1 abs_W1_687_0 abs_W1_687_1 abs_W1_688_0 abs_W1_688_1
 abs_W1_689_0 abs_W1_689_1 abs_W1_690_0 abs_W1_690_1 abs_W1_691_0
 abs_W1_691_1 abs_W1_692_0 abs_W1_692_1 abs_W1_693_0 abs_W1_693_1
 abs_W1_694_0 abs_W1_694_1 abs_W1_695_0 abs_W1_695_1 abs_W1_696_0
 abs_W1_696_1 abs_W1_697_0 abs_W1_697_1 abs_W1_698_0 abs_W1_698_1
 abs_W1_699_0 abs_W1_699_1 abs_W1_700_0 abs_W1_700_1 abs_W1_701_0
 abs_W1_701_1 abs_W1_702_0 abs_W1_702_1 abs_W1_703_0 abs_W1_703_1
 abs_W1_704_0 abs_W1_704_1 abs_W1_705_0 abs_W1_705_1 abs_W1_706_0
 abs_W1_706_1 abs_W1_707_0 abs_W1_707_1 abs_W1_708_0 abs_W1_708_1
 abs_W1_709_0 abs_W1_709_1 abs_W1_710_0 abs_W1_710_1 abs_W1_711_0
 abs_W1_711_1 abs_W1_712_0 abs_W1_712_1 abs_W1_713_0 abs_W1_713_1
 abs_W1_714_0 abs_W1_714_1 abs_W1_715_0 abs_W1_715_1 abs_W1_716_0
 abs_W1_716_1 abs_W1_717_0 abs_W1_717_1 abs_W1_718_0 abs_W1_718_1
 abs_W1_719_0 abs_W1_719_1 abs_W1_720_0 abs_W1_720_1 abs_W1_721_0
 abs_W1_721_1 abs_W1_722_0 abs_W1_722_1 abs_W1_723_0 abs_W1_723_1
 abs_W1_724_0 abs_W1_724_1 abs_W1_725_0 abs_W1_725_1 abs_W1_726_0
 abs_W1_726_1 abs_W1_727_0 abs_W1_727_1 abs_W1_728_0 abs_W1_728_1
 abs_W1_729_0 abs_W1_729_1 abs_W1_730_0 abs_W1_730_1 abs_W1_731_0
 abs_W1_731_1 abs_W1_732_0 abs_W1_732_1 abs_W1_733_0 abs_W1_733_1
 abs_W1_734_0 abs_W1_734_1 abs_W1_735_0 abs_W1_735_1 abs_W1_736_0
 abs_W1_736_1 abs_W1_737_0 abs_W1_737_1 abs_W1_738_0 abs_W1_738_1
 abs_W1_739_0 abs_W1_739_1 abs_W1_740_0 abs_W1_740_1 abs_W1_741_0
 abs_W1_741_1 abs_W1_742_0 abs_W1_742_1 abs_W1_743_0 abs_W1_743_1
 abs_W1_744_0 abs_W1_744_1 abs_W1_745_0 abs_W1_745_1 abs_W1_746_0
 abs_W1_746_1 abs_W1_747_0 abs_W1_747_1 abs_W1_748_0 abs_W1_748_1
 abs_W1_749_0 abs_W1_749_1 abs_W1_750_0 abs_W1_750_1 abs_W1_751_0
 abs_W1_751_1 abs_W1_752_0 abs_W1_752_1 abs_W1_753_0 abs_W1_753_1
 abs_W1_754_0 abs_W1_754_1 abs_W1_755_0 abs_W1_755_1 abs_W1_756_0
 abs_W1_756_1 abs_W1_757_0 abs_W1_757_1 abs_W1_758_0 abs_W1_758_1
 abs_W1_759_0 abs_W1_759_1 abs_W1_760_0 abs_W1_760_1 abs_W1_761_0
 abs_W1_761_1 abs_W1_762_0 abs_W1_762_1 abs_W1_763_0 abs_W1_763_1
 abs_W1_764_0 abs_W1_764_1 abs_W1_765_0 abs_W1_765_1 abs_W1_766_0
 abs_W1_766_1 abs_W1_767_0 abs_W1_767_1 abs_W1_768_0 abs_W1_768_1
 abs_W1_769_0 abs_W1_769_1 abs_W1_770_0 abs_W1_770_1 abs_W1_771_0
 abs_W1_771_1 abs_W1_772_0 abs_W1_772_1 abs_W1_773_0 abs_W1_773_1
 abs_W1_774_0 abs_W1_774_1 abs_W1_775_0 abs_W1_775_1 abs_W1_776_0
 abs_W1_776_1 abs_W1_777_0 abs_W1_777_1 abs_W1_778_0 abs_W1_778_1
 abs_W1_779_0 abs_W1_779_1 abs_W1_780_0 abs_W1_780_1 abs_W1_781_0
 abs_W1_781_1 abs_W1_782_0 abs_W1_782_1 abs_W1_783_0 abs_W1_783_1
 abs_W1_784_0 abs_W1_784_1 sign_inner_0_0 sign_inner_0_1 sign_inner_1_0
 sign_inner_1_1 sign_inner_2_0 sign_inner_2_1 sign_inner_3_0 sign_inner_3_1
 sign_inner_4_0 sign_inner_4_1 sign_inner_5_0 sign_inner_5_1 sign_inner_6_0
 sign_inner_6_1 sign_inner_7_0 sign_inner_7_1 sign_inner_8_0 sign_inner_8_1
 sign_inner_9_0 sign_inner_9_1 sign_inner_10_0 sign_inner_10_1
 sign_inner_11_0 sign_inner_11_1 sign_inner_12_0 sign_inner_12_1
 sign_inner_13_0 sign_inner_13_1 sign_inner_14_0 sign_inner_14_1
 sign_inner_15_0 sign_inner_15_1 sign_inner_16_0 sign_inner_16_1
 sign_inner_17_0 sign_inner_17_1 sign_inner_18_0 sign_inner_18_1
 sign_inner_19_0 sign_inner_19_1 sign_inner_20_0 sign_inner_20_1 w2_neg_0
 w2_zero_0 w2_pos_0 w2_neg_1 w2_zero_1 w2_pos_1 w2_neg_2 w2_zero_2 w2_pos_2
 prod_0_1_pos prod_0_1_neg prod_0_2_pos prod_0_2_neg prod_1_1_pos
 prod_1_1_neg prod_1_2_pos prod_1_2_neg prod_2_1_pos prod_2_1_neg
 prod_2_2_pos prod_2_2_neg prod_3_1_pos prod_3_1_neg prod_3_2_pos
 prod_3_2_neg prod_4_1_pos prod_4_1_neg prod_4_2_pos prod_4_2_neg
 prod_5_1_pos prod_5_1_neg prod_5_2_pos prod_5_2_neg prod_6_1_pos
 prod_6_1_neg prod_6_2_pos prod_6_2_neg prod_7_1_pos prod_7_1_neg
 prod_7_2_pos prod_7_2_neg prod_8_1_pos prod_8_1_neg prod_8_2_pos
 prod_8_2_neg prod_9_1_pos prod_9_1_neg prod_9_2_pos prod_9_2_neg
 prod_10_1_pos prod_10_1_neg prod_10_2_pos prod_10_2_neg prod_11_1_pos
 prod_11_1_neg prod_11_2_pos prod_11_2_neg prod_12_1_pos prod_12_1_neg
 prod_12_2_pos prod_12_2_neg prod_13_1_pos prod_13_1_neg prod_13_2_pos
 prod_13_2_neg prod_14_1_pos prod_14_1_neg prod_14_2_pos prod_14_2_neg
 prod_15_1_pos prod_15_1_neg prod_15_2_pos prod_15_2_neg prod_16_1_pos
 prod_16_1_neg prod_16_2_pos prod_16_2_neg prod_17_1_pos prod_17_1_neg
 prod_17_2_pos prod_17_2_neg prod_18_1_pos prod_18_1_neg prod_18_2_pos
 prod_18_2_neg prod_19_1_pos prod_19_1_neg prod_19_2_pos prod_19_2_neg
 prod_20_1_pos prod_20_1_neg prod_20_2_pos prod_20_2_neg abs_W2_0 abs_W2_1
 abs_W2_2 sign_outer0 sign_outer1 sign_outer2 sign_outer3 sign_outer4
 sign_outer5 sign_outer6 sign_outer7 sign_outer8 sign_outer9 sign_outer10
 sign_outer11 sign_outer12 sign_outer13 sign_outer14 sign_outer15
 sign_outer16 sign_outer17 sign_outer18 sign_outer19 sign_outer20
Generals
 W1_0_0 W1_0_1 W1_1_0 W1_1_1 W1_2_0 W1_2_1 W1_3_0 W1_3_1 W1_4_0 W1_4_1
 W1_5_0 W1_5_1 W1_6_0 W1_6_1 W1_7_0 W1_7_1 W1_8_0 W1_8_1 W1_9_0 W1_9_1
 W1_10_0 W1_10_1 W1_11_0 W1_11_1 W1_12_0 W1_12_1 W1_13_0 W1_13_1 W1_14_0
 W1_14_1 W1_15_0 W1_15_1 W1_16_0 W1_16_1 W1_17_0 W1_17_1 W1_18_0 W1_18_1
 W1_19_0 W1_19_1 W1_20_0 W1_20_1 W1_21_0 W1_21_1 W1_22_0 W1_22_1 W1_23_0
 W1_23_1 W1_24_0 W1_24_1 W1_25_0 W1_25_1 W1_26_0 W1_26_1 W1_27_0 W1_27_1
 W1_28_0 W1_28_1 W1_29_0 W1_29_1 W1_30_0 W1_30_1 W1_31_0 W1_31_1 W1_32_0
 W1_32_1 W1_33_0 W1_33_1 W1_34_0 W1_34_1 W1_35_0 W1_35_1 W1_36_0 W1_36_1
 W1_37_0 W1_37_1 W1_38_0 W1_38_1 W1_39_0 W1_39_1 W1_40_0 W1_40_1 W1_41_0
 W1_41_1 W1_42_0 W1_42_1 W1_43_0 W1_43_1 W1_44_0 W1_44_1 W1_45_0 W1_45_1
 W1_46_0 W1_46_1 W1_47_0 W1_47_1 W1_48_0 W1_48_1 W1_49_0 W1_49_1 W1_50_0
 W1_50_1 W1_51_0 W1_51_1 W1_52_0 W1_52_1 W1_53_0 W1_53_1 W1_54_0 W1_54_1
 W1_55_0 W1_55_1 W1_56_0 W1_56_1 W1_57_0 W1_57_1 W1_58_0 W1_58_1 W1_59_0
 W1_59_1 W1_60_0 W1_60_1 W1_61_0 W1_61_1 W1_62_0 W1_62_1 W1_63_0 W1_63_1
 W1_64_0 W1_64_1 W1_65_0 W1_65_1 W1_66_0 W1_66_1 W1_67_0 W1_67_1 W1_68_0
 W1_68_1 W1_69_0 W1_69_1 W1_70_0 W1_70_1 W1_71_0 W1_71_1 W1_72_0 W1_72_1
 W1_73_0 W1_73_1 W1_74_0 W1_74_1 W1_75_0 W1_75_1 W1_76_0 W1_76_1 W1_77_0
 W1_77_1 W1_78_0 W1_78_1 W1_79_0 W1_79_1 W1_80_0 W1_80_1 W1_81_0 W1_81_1
 W1_82_0 W1_82_1 W1_83_0 W1_83_1 W1_84_0 W1_84_1 W1_85_0 W1_85_1 W1_86_0
 W1_86_1 W1_87_0 W1_87_1 W1_88_0 W1_88_1 W1_89_0 W1_89_1 W1_90_0 W1_90_1
 W1_91_0 W1_91_1 W1_92_0 W1_92_1 W1_93_0 W1_93_1 W1_94_0 W1_94_1 W1_95_0
 W1_95_1 W1_96_0 W1_96_1 W1_97_0 W1_97_1 W1_98_0 W1_98_1 W1_99_0 W1_99_1
 W1_100_0 W1_100_1 W1_101_0 W1_101_1 W1_102_0 W1_102_1 W1_103_0 W1_103_1
 W1_104_0 W1_104_1 W1_105_0 W1_105_1 W1_106_0 W1_106_1 W1_107_0 W1_107_1
 W1_108_0 W1_108_1 W1_109_0 W1_109_1 W1_110_0 W1_110_1 W1_111_0 W1_111_1
 W1_112_0 W1_112_1 W1_113_0 W1_113_1 W1_114_0 W1_114_1 W1_115_0 W1_115_1
 W1_116_0 W1_116_1 W1_117_0 W1_117_1 W1_118_0 W1_118_1 W1_119_0 W1_119_1
 W1_120_0 W1_120_1 W1_121_0 W1_121_1 W1_122_0 W1_122_1 W1_123_0 W1_123_1
 W1_124_0 W1_124_1 W1_125_0 W1_125_1 W1_126_0 W1_126_1 W1_127_0 W1_127_1
 W1_128_0 W1_128_1 W1_129_0 W1_129_1 W1_130_0 W1_130_1 W1_131_0 W1_131_1
 W1_132_0 W1_132_1 W1_133_0 W1_133_1 W1_134_0 W1_134_1 W1_135_0 W1_135_1
 W1_136_0 W1_136_1 W1_137_0 W1_137_1 W1_138_0 W1_138_1 W1_139_0 W1_139_1
 W1_140_0 W1_140_1 W1_141_0 W1_141_1 W1_142_0 W1_142_1 W1_143_0 W1_143_1
 W1_144_0 W1_144_1 W1_145_0 W1_145_1 W1_146_0 W1_146_1 W1_147_0 W1_147_1
 W1_148_0 W1_148_1 W1_149_0 W1_149_1 W1_150_0 W1_150_1 W1_151_0 W1_151_1
 W1_152_0 W1_152_1 W1_153_0 W1_153_1 W1_154_0 W1_154_1 W1_155_0 W1_155_1
 W1_156_0 W1_156_1 W1_157_0 W1_157_1 W1_158_0 W1_158_1 W1_159_0 W1_159_1
 W1_160_0 W1_160_1 W1_161_0 W1_161_1 W1_162_0 W1_162_1 W1_163_0 W1_163_1
 W1_164_0 W1_164_1 W1_165_0 W1_165_1 W1_166_0 W1_166_1 W1_167_0 W1_167_1
 W1_168_0 W1_168_1 W1_169_0 W1_169_1 W1_170_0 W1_170_1 W1_171_0 W1_171_1
 W1_172_0 W1_172_1 W1_173_0 W1_173_1 W1_174_0 W1_174_1 W1_175_0 W1_175_1
 W1_176_0 W1_176_1 W1_177_0 W1_177_1 W1_178_0 W1_178_1 W1_179_0 W1_179_1
 W1_180_0 W1_180_1 W1_181_0 W1_181_1 W1_182_0 W1_182_1 W1_183_0 W1_183_1
 W1_184_0 W1_184_1 W1_185_0 W1_185_1 W1_186_0 W1_186_1 W1_187_0 W1_187_1
 W1_188_0 W1_188_1 W1_189_0 W1_189_1 W1_190_0 W1_190_1 W1_191_0 W1_191_1
 W1_192_0 W1_192_1 W1_193_0 W1_193_1 W1_194_0 W1_194_1 W1_195_0 W1_195_1
 W1_196_0 W1_196_1 W1_197_0 W1_197_1 W1_198_0 W1_198_1 W1_199_0 W1_199_1
 W1_200_0 W1_200_1 W1_201_0 W1_201_1 W1_202_0 W1_202_1 W1_203_0 W1_203_1
 W1_204_0 W1_204_1 W1_205_0 W1_205_1 W1_206_0 W1_206_1 W1_207_0 W1_207_1
 W1_208_0 W1_208_1 W1_209_0 W1_209_1 W1_210_0 W1_210_1 W1_211_0 W1_211_1
 W1_212_0 W1_212_1 W1_213_0 W1_213_1 W1_214_0 W1_214_1 W1_215_0 W1_215_1
 W1_216_0 W1_216_1 W1_217_0 W1_217_1 W1_218_0 W1_218_1 W1_219_0 W1_219_1
 W1_220_0 W1_220_1 W1_221_0 W1_221_1 W1_222_0 W1_222_1 W1_223_0 W1_223_1
 W1_224_0 W1_224_1 W1_225_0 W1_225_1 W1_226_0 W1_226_1 W1_227_0 W1_227_1
 W1_228_0 W1_228_1 W1_229_0 W1_229_1 W1_230_0 W1_230_1 W1_231_0 W1_231_1
 W1_232_0 W1_232_1 W1_233_0 W1_233_1 W1_234_0 W1_234_1 W1_235_0 W1_235_1
 W1_236_0 W1_236_1 W1_237_0 W1_237_1 W1_238_0 W1_238_1 W1_239_0 W1_239_1
 W1_240_0 W1_240_1 W1_241_0 W1_241_1 W1_242_0 W1_242_1 W1_243_0 W1_243_1
 W1_244_0 W1_244_1 W1_245_0 W1_245_1 W1_246_0 W1_246_1 W1_247_0 W1_247_1
 W1_248_0 W1_248_1 W1_249_0 W1_249_1 W1_250_0 W1_250_1 W1_251_0 W1_251_1
 W1_252_0 W1_252_1 W1_253_0 W1_253_1 W1_254_0 W1_254_1 W1_255_0 W1_255_1
 W1_256_0 W1_256_1 W1_257_0 W1_257_1 W1_258_0 W1_258_1 W1_259_0 W1_259_1
 W1_260_0 W1_260_1 W1_261_0 W1_261_1 W1_262_0 W1_262_1 W1_263_0 W1_263_1
 W1_264_0 W1_264_1 W1_265_0 W1_265_1 W1_266_0 W1_266_1 W1_267_0 W1_267_1
 W1_268_0 W1_268_1 W1_269_0 W1_269_1 W1_270_0 W1_270_1 W1_271_0 W1_271_1
 W1_272_0 W1_272_1 W1_273_0 W1_273_1 W1_274_0 W1_274_1 W1_275_0 W1_275_1
 W1_276_0 W1_276_1 W1_277_0 W1_277_1 W1_278_0 W1_278_1 W1_279_0 W1_279_1
 W1_280_0 W1_280_1 W1_281_0 W1_281_1 W1_282_0 W1_282_1 W1_283_0 W1_283_1
 W1_284_0 W1_284_1 W1_285_0 W1_285_1 W1_286_0 W1_286_1 W1_287_0 W1_287_1
 W1_288_0 W1_288_1 W1_289_0 W1_289_1 W1_290_0 W1_290_1 W1_291_0 W1_291_1
 W1_292_0 W1_292_1 W1_293_0 W1_293_1 W1_294_0 W1_294_1 W1_295_0 W1_295_1
 W1_296_0 W1_296_1 W1_297_0 W1_297_1 W1_298_0 W1_298_1 W1_299_0 W1_299_1
 W1_300_0 W1_300_1 W1_301_0 W1_301_1 W1_302_0 W1_302_1 W1_303_0 W1_303_1
 W1_304_0 W1_304_1 W1_305_0 W1_305_1 W1_306_0 W1_306_1 W1_307_0 W1_307_1
 W1_308_0 W1_308_1 W1_309_0 W1_309_1 W1_310_0 W1_310_1 W1_311_0 W1_311_1
 W1_312_0 W1_312_1 W1_313_0 W1_313_1 W1_314_0 W1_314_1 W1_315_0 W1_315_1
 W1_316_0 W1_316_1 W1_317_0 W1_317_1 W1_318_0 W1_318_1 W1_319_0 W1_319_1
 W1_320_0 W1_320_1 W1_321_0 W1_321_1 W1_322_0 W1_322_1 W1_323_0 W1_323_1
 W1_324_0 W1_324_1 W1_325_0 W1_325_1 W1_326_0 W1_326_1 W1_327_0 W1_327_1
 W1_328_0 W1_328_1 W1_329_0 W1_329_1 W1_330_0 W1_330_1 W1_331_0 W1_331_1
 W1_332_0 W1_332_1 W1_333_0 W1_333_1 W1_334_0 W1_334_1 W1_335_0 W1_335_1
 W1_336_0 W1_336_1 W1_337_0 W1_337_1 W1_338_0 W1_338_1 W1_339_0 W1_339_1
 W1_340_0 W1_340_1 W1_341_0 W1_341_1 W1_342_0 W1_342_1 W1_343_0 W1_343_1
 W1_344_0 W1_344_1 W1_345_0 W1_345_1 W1_346_0 W1_346_1 W1_347_0 W1_347_1
 W1_348_0 W1_348_1 W1_349_0 W1_349_1 W1_350_0 W1_350_1 W1_351_0 W1_351_1
 W1_352_0 W1_352_1 W1_353_0 W1_353_1 W1_354_0 W1_354_1 W1_355_0 W1_355_1
 W1_356_0 W1_356_1 W1_357_0 W1_357_1 W1_358_0 W1_358_1 W1_359_0 W1_359_1
 W1_360_0 W1_360_1 W1_361_0 W1_361_1 W1_362_0 W1_362_1 W1_363_0 W1_363_1
 W1_364_0 W1_364_1 W1_365_0 W1_365_1 W1_366_0 W1_366_1 W1_367_0 W1_367_1
 W1_368_0 W1_368_1 W1_369_0 W1_369_1 W1_370_0 W1_370_1 W1_371_0 W1_371_1
 W1_372_0 W1_372_1 W1_373_0 W1_373_1 W1_374_0 W1_374_1 W1_375_0 W1_375_1
 W1_376_0 W1_376_1 W1_377_0 W1_377_1 W1_378_0 W1_378_1 W1_379_0 W1_379_1
 W1_380_0 W1_380_1 W1_381_0 W1_381_1 W1_382_0 W1_382_1 W1_383_0 W1_383_1
 W1_384_0 W1_384_1 W1_385_0 W1_385_1 W1_386_0 W1_386_1 W1_387_0 W1_387_1
 W1_388_0 W1_388_1 W1_389_0 W1_389_1 W1_390_0 W1_390_1 W1_391_0 W1_391_1
 W1_392_0 W1_392_1 W1_393_0 W1_393_1 W1_394_0 W1_394_1 W1_395_0 W1_395_1
 W1_396_0 W1_396_1 W1_397_0 W1_397_1 W1_398_0 W1_398_1 W1_399_0 W1_399_1
 W1_400_0 W1_400_1 W1_401_0 W1_401_1 W1_402_0 W1_402_1 W1_403_0 W1_403_1
 W1_404_0 W1_404_1 W1_405_0 W1_405_1 W1_406_0 W1_406_1 W1_407_0 W1_407_1
 W1_408_0 W1_408_1 W1_409_0 W1_409_1 W1_410_0 W1_410_1 W1_411_0 W1_411_1
 W1_412_0 W1_412_1 W1_413_0 W1_413_1 W1_414_0 W1_414_1 W1_415_0 W1_415_1
 W1_416_0 W1_416_1 W1_417_0 W1_417_1 W1_418_0 W1_418_1 W1_419_0 W1_419_1
 W1_420_0 W1_420_1 W1_421_0 W1_421_1 W1_422_0 W1_422_1 W1_423_0 W1_423_1
 W1_424_0 W1_424_1 W1_425_0 W1_425_1 W1_426_0 W1_426_1 W1_427_0 W1_427_1
 W1_428_0 W1_428_1 W1_429_0 W1_429_1 W1_430_0 W1_430_1 W1_431_0 W1_431_1
 W1_432_0 W1_432_1 W1_433_0 W1_433_1 W1_434_0 W1_434_1 W1_435_0 W1_435_1
 W1_436_0 W1_436_1 W1_437_0 W1_437_1 W1_438_0 W1_438_1 W1_439_0 W1_439_1
 W1_440_0 W1_440_1 W1_441_0 W1_441_1 W1_442_0 W1_442_1 W1_443_0 W1_443_1
 W1_444_0 W1_444_1 W1_445_0 W1_445_1 W1_446_0 W1_446_1 W1_447_0 W1_447_1
 W1_448_0 W1_448_1 W1_449_0 W1_449_1 W1_450_0 W1_450_1 W1_451_0 W1_451_1
 W1_452_0 W1_452_1 W1_453_0 W1_453_1 W1_454_0 W1_454_1 W1_455_0 W1_455_1
 W1_456_0 W1_456_1 W1_457_0 W1_457_1 W1_458_0 W1_458_1 W1_459_0 W1_459_1
 W1_460_0 W1_460_1 W1_461_0 W1_461_1 W1_462_0 W1_462_1 W1_463_0 W1_463_1
 W1_464_0 W1_464_1 W1_465_0 W1_465_1 W1_466_0 W1_466_1 W1_467_0 W1_467_1
 W1_468_0 W1_468_1 W1_469_0 W1_469_1 W1_470_0 W1_470_1 W1_471_0 W1_471_1
 W1_472_0 W1_472_1 W1_473_0 W1_473_1 W1_474_0 W1_474_1 W1_475_0 W1_475_1
 W1_476_0 W1_476_1 W1_477_0 W1_477_1 W1_478_0 W1_478_1 W1_479_0 W1_479_1
 W1_480_0 W1_480_1 W1_481_0 W1_481_1 W1_482_0 W1_482_1 W1_483_0 W1_483_1
 W1_484_0 W1_484_1 W1_485_0 W1_485_1 W1_486_0 W1_486_1 W1_487_0 W1_487_1
 W1_488_0 W1_488_1 W1_489_0 W1_489_1 W1_490_0 W1_490_1 W1_491_0 W1_491_1
 W1_492_0 W1_492_1 W1_493_0 W1_493_1 W1_494_0 W1_494_1 W1_495_0 W1_495_1
 W1_496_0 W1_496_1 W1_497_0 W1_497_1 W1_498_0 W1_498_1 W1_499_0 W1_499_1
 W1_500_0 W1_500_1 W1_501_0 W1_501_1 W1_502_0 W1_502_1 W1_503_0 W1_503_1
 W1_504_0 W1_504_1 W1_505_0 W1_505_1 W1_506_0 W1_506_1 W1_507_0 W1_507_1
 W1_508_0 W1_508_1 W1_509_0 W1_509_1 W1_510_0 W1_510_1 W1_511_0 W1_511_1
 W1_512_0 W1_512_1 W1_513_0 W1_513_1 W1_514_0 W1_514_1 W1_515_0 W1_515_1
 W1_516_0 W1_516_1 W1_517_0 W1_517_1 W1_518_0 W1_518_1 W1_519_0 W1_519_1
 W1_520_0 W1_520_1 W1_521_0 W1_521_1 W1_522_0 W1_522_1 W1_523_0 W1_523_1
 W1_524_0 W1_524_1 W1_525_0 W1_525_1 W1_526_0 W1_526_1 W1_527_0 W1_527_1
 W1_528_0 W1_528_1 W1_529_0 W1_529_1 W1_530_0 W1_530_1 W1_531_0 W1_531_1
 W1_532_0 W1_532_1 W1_533_0 W1_533_1 W1_534_0 W1_534_1 W1_535_0 W1_535_1
 W1_536_0 W1_536_1 W1_537_0 W1_537_1 W1_538_0 W1_538_1 W1_539_0 W1_539_1
 W1_540_0 W1_540_1 W1_541_0 W1_541_1 W1_542_0 W1_542_1 W1_543_0 W1_543_1
 W1_544_0 W1_544_1 W1_545_0 W1_545_1 W1_546_0 W1_546_1 W1_547_0 W1_547_1
 W1_548_0 W1_548_1 W1_549_0 W1_549_1 W1_550_0 W1_550_1 W1_551_0 W1_551_1
 W1_552_0 W1_552_1 W1_553_0 W1_553_1 W1_554_0 W1_554_1 W1_555_0 W1_555_1
 W1_556_0 W1_556_1 W1_557_0 W1_557_1 W1_558_0 W1_558_1 W1_559_0 W1_559_1
 W1_560_0 W1_560_1 W1_561_0 W1_561_1 W1_562_0 W1_562_1 W1_563_0 W1_563_1
 W1_564_0 W1_564_1 W1_565_0 W1_565_1 W1_566_0 W1_566_1 W1_567_0 W1_567_1
 W1_568_0 W1_568_1 W1_569_0 W1_569_1 W1_570_0 W1_570_1 W1_571_0 W1_571_1
 W1_572_0 W1_572_1 W1_573_0 W1_573_1 W1_574_0 W1_574_1 W1_575_0 W1_575_1
 W1_576_0 W1_576_1 W1_577_0 W1_577_1 W1_578_0 W1_578_1 W1_579_0 W1_579_1
 W1_580_0 W1_580_1 W1_581_0 W1_581_1 W1_582_0 W1_582_1 W1_583_0 W1_583_1
 W1_584_0 W1_584_1 W1_585_0 W1_585_1 W1_586_0 W1_586_1 W1_587_0 W1_587_1
 W1_588_0 W1_588_1 W1_589_0 W1_589_1 W1_590_0 W1_590_1 W1_591_0 W1_591_1
 W1_592_0 W1_592_1 W1_593_0 W1_593_1 W1_594_0 W1_594_1 W1_595_0 W1_595_1
 W1_596_0 W1_596_1 W1_597_0 W1_597_1 W1_598_0 W1_598_1 W1_599_0 W1_599_1
 W1_600_0 W1_600_1 W1_601_0 W1_601_1 W1_602_0 W1_602_1 W1_603_0 W1_603_1
 W1_604_0 W1_604_1 W1_605_0 W1_605_1 W1_606_0 W1_606_1 W1_607_0 W1_607_1
 W1_608_0 W1_608_1 W1_609_0 W1_609_1 W1_610_0 W1_610_1 W1_611_0 W1_611_1
 W1_612_0 W1_612_1 W1_613_0 W1_613_1 W1_614_0 W1_614_1 W1_615_0 W1_615_1
 W1_616_0 W1_616_1 W1_617_0 W1_617_1 W1_618_0 W1_618_1 W1_619_0 W1_619_1
 W1_620_0 W1_620_1 W1_621_0 W1_621_1 W1_622_0 W1_622_1 W1_623_0 W1_623_1
 W1_624_0 W1_624_1 W1_625_0 W1_625_1 W1_626_0 W1_626_1 W1_627_0 W1_627_1
 W1_628_0 W1_628_1 W1_629_0 W1_629_1 W1_630_0 W1_630_1 W1_631_0 W1_631_1
 W1_632_0 W1_632_1 W1_633_0 W1_633_1 W1_634_0 W1_634_1 W1_635_0 W1_635_1
 W1_636_0 W1_636_1 W1_637_0 W1_637_1 W1_638_0 W1_638_1 W1_639_0 W1_639_1
 W1_640_0 W1_640_1 W1_641_0 W1_641_1 W1_642_0 W1_642_1 W1_643_0 W1_643_1
 W1_644_0 W1_644_1 W1_645_0 W1_645_1 W1_646_0 W1_646_1 W1_647_0 W1_647_1
 W1_648_0 W1_648_1 W1_649_0 W1_649_1 W1_650_0 W1_650_1 W1_651_0 W1_651_1
 W1_652_0 W1_652_1 W1_653_0 W1_653_1 W1_654_0 W1_654_1 W1_655_0 W1_655_1
 W1_656_0 W1_656_1 W1_657_0 W1_657_1 W1_658_0 W1_658_1 W1_659_0 W1_659_1
 W1_660_0 W1_660_1 W1_661_0 W1_661_1 W1_662_0 W1_662_1 W1_663_0 W1_663_1
 W1_664_0 W1_664_1 W1_665_0 W1_665_1 W1_666_0 W1_666_1 W1_667_0 W1_667_1
 W1_668_0 W1_668_1 W1_669_0 W1_669_1 W1_670_0 W1_670_1 W1_671_0 W1_671_1
 W1_672_0 W1_672_1 W1_673_0 W1_673_1 W1_674_0 W1_674_1 W1_675_0 W1_675_1
 W1_676_0 W1_676_1 W1_677_0 W1_677_1 W1_678_0 W1_678_1 W1_679_0 W1_679_1
 W1_680_0 W1_680_1 W1_681_0 W1_681_1 W1_682_0 W1_682_1 W1_683_0 W1_683_1
 W1_684_0 W1_684_1 W1_685_0 W1_685_1 W1_686_0 W1_686_1 W1_687_0 W1_687_1
 W1_688_0 W1_688_1 W1_689_0 W1_689_1 W1_690_0 W1_690_1 W1_691_0 W1_691_1
 W1_692_0 W1_692_1 W1_693_0 W1_693_1 W1_694_0 W1_694_1 W1_695_0 W1_695_1
 W1_696_0 W1_696_1 W1_697_0 W1_697_1 W1_698_0 W1_698_1 W1_699_0 W1_699_1
 W1_700_0 W1_700_1 W1_701_0 W1_701_1 W1_702_0 W1_702_1 W1_703_0 W1_703_1
 W1_704_0 W1_704_1 W1_705_0 W1_705_1 W1_706_0 W1_706_1 W1_707_0 W1_707_1
 W1_708_0 W1_708_1 W1_709_0 W1_709_1 W1_710_0 W1_710_1 W1_711_0 W1_711_1
 W1_712_0 W1_712_1 W1_713_0 W1_713_1 W1_714_0 W1_714_1 W1_715_0 W1_715_1
 W1_716_0 W1_716_1 W1_717_0 W1_717_1 W1_718_0 W1_718_1 W1_719_0 W1_719_1
 W1_720_0 W1_720_1 W1_721_0 W1_721_1 W1_722_0 W1_722_1 W1_723_0 W1_723_1
 W1_724_0 W1_724_1 W1_725_0 W1_725_1 W1_726_0 W1_726_1 W1_727_0 W1_727_1
 W1_728_0 W1_728_1 W1_729_0 W1_729_1 W1_730_0 W1_730_1 W1_731_0 W1_731_1
 W1_732_0 W1_732_1 W1_733_0 W1_733_1 W1_734_0 W1_734_1 W1_735_0 W1_735_1
 W1_736_0 W1_736_1 W1_737_0 W1_737_1 W1_738_0 W1_738_1 W1_739_0 W1_739_1
 W1_740_0 W1_740_1 W1_741_0 W1_741_1 W1_742_0 W1_742_1 W1_743_0 W1_743_1
 W1_744_0 W1_744_1 W1_745_0 W1_745_1 W1_746_0 W1_746_1 W1_747_0 W1_747_1
 W1_748_0 W1_748_1 W1_749_0 W1_749_1 W1_750_0 W1_750_1 W1_751_0 W1_751_1
 W1_752_0 W1_752_1 W1_753_0 W1_753_1 W1_754_0 W1_754_1 W1_755_0 W1_755_1
 W1_756_0 W1_756_1 W1_757_0 W1_757_1 W1_758_0 W1_758_1 W1_759_0 W1_759_1
 W1_760_0 W1_760_1 W1_761_0 W1_761_1 W1_762_0 W1_762_1 W1_763_0 W1_763_1
 W1_764_0 W1_764_1 W1_765_0 W1_765_1 W1_766_0 W1_766_1 W1_767_0 W1_767_1
 W1_768_0 W1_768_1 W1_769_0 W1_769_1 W1_770_0 W1_770_1 W1_771_0 W1_771_1
 W1_772_0 W1_772_1 W1_773_0 W1_773_1 W1_774_0 W1_774_1 W1_775_0 W1_775_1
 W1_776_0 W1_776_1 W1_777_0 W1_777_1 W1_778_0 W1_778_1 W1_779_0 W1_779_1
 W1_780_0 W1_780_1 W1_781_0 W1_781_1 W1_782_0 W1_782_1 W1_783_0 W1_783_1
 W1_784_0 W1_784_1 W2_0 W2_1 W2_2 g_0_1 g_0_2 g_1_1 g_1_2 g_2_1 g_2_2 g_3_1
 g_3_2 g_4_1 g_4_2 g_5_1 g_5_2 g_6_1 g_6_2 g_7_1 g_7_2 g_8_1 g_8_2 g_9_1
 g_9_2 g_10_1 g_10_2 g_11_1 g_11_2 g_12_1 g_12_2 g_13_1 g_13_2 g_14_1
 g_14_2 g_15_1 g_15_2 g_16_1 g_16_2 g_17_1 g_17_2 g_18_1 g_18_2 g_19_1
 g_19_2 g_20_1 g_20_2 q_0 q_1 q_2 q_3 q_4 q_5 q_6 q_7 q_8 q_9 q_10 q_11
 q_12 q_13 q_14 q_15 q_16 q_17 q_18 q_19 q_20
End
